! Created with skrf 1.8.0 (http://scikit-rf.org).
# Hz S RI R 50.0 
!freq ReS11 ImS11
50000.0 -0.01126463 0.005045393
15049500.0 -0.015164262 -0.005439004
30049000.0 -0.016165992 -0.008897976
45048500.0 -0.016537976 -0.012521206
60048000.0 -0.016953994 -0.016358088
75047500.0 -0.016754984 -0.021415244
90047000.0 -0.017267162 -0.026343706
105046500.0 -0.017965182 -0.031807516
120046000.0 -0.019373272 -0.037987472
135045500.0 -0.02156859 -0.044456456
150045000.0 -0.024544006 -0.050906608
165044500.0 -0.028475696 -0.056664256
180044000.0 -0.033003416 -0.0614361
195043500.0 -0.037764104 -0.065096848
210043000.0 -0.042618512 -0.06718344
225042500.0 -0.046951096 -0.067751848
240042000.0 -0.050439448 -0.066836112
255041500.0 -0.052844204 -0.064405688
270041000.0 -0.053756612 -0.060911524
285040500.0 -0.052990724 -0.056658116
300040000.0 -0.0507084 -0.051424076
315039500.0 -0.04557786 -0.047133604
330039000.0 -0.040018384 -0.042438928
345038500.0 -0.031960764 -0.038436136
360038000.0 -0.02320096 -0.036709908
375037500.0 -0.012856048 -0.035623124
390037000.0 -0.000665856 -0.036034404
405036500.0 0.010510746 -0.038670396
420036000.0 0.022638006 -0.044759332
435035500.0 0.034363736 -0.051632232
450035000.0 0.044301556 -0.060536916
465034500.0 0.052412824 -0.071802752
480034000.0 0.058574568 -0.08338944
495033500.0 0.06347806 -0.095204424
510033000.0 0.066307732 -0.109224048
525032500.0 0.066100776 -0.12328652
540032000.0 0.065185024 -0.138561232
555031500.0 0.060914524 -0.15107744
570031000.0 0.057329144 -0.164180704
585030500.0 0.050007848 -0.175223968
600030000.0 0.042906116 -0.186443408
615029500.0 0.03474012 -0.19275888
630029000.0 0.025544862 -0.196974448
645028500.0 0.01708239 -0.198445696
660028000.0 0.008520264 -0.196714672
675027500.0 0.000584737 -0.18976184
690027000.0 -0.006829346 -0.183238144
705026500.0 -0.011866308 -0.172506016
720026000.0 -0.01587332 -0.158654704
735025500.0 -0.016093308 -0.144876432
750025000.0 -0.013763558 -0.12932356
765024500.0 -0.01153278 -0.112888064
780024000.0 -0.003901065 -0.092384552
795023500.0 0.003284114 -0.08027292
810023000.0 0.012809104 -0.067373832
825022500.0 0.026397278 -0.052267136
840022000.0 0.03918696 -0.043414236
855021500.0 0.055496672 -0.035620744
870021000.0 0.071140016 -0.032248054
885020500.0 0.087381712 -0.032646716
900020000.0 0.09380836 -0.040424428
915019500.0 0.11272736 -0.05081344
930019000.0 0.12632288 -0.062683896
945018500.0 0.137579552 -0.081679048
960018000.0 0.152535968 -0.096694928
975017500.0 0.152378096 -0.115011464
990017000.0 0.167541296 -0.12837616
1005016500.0 0.17255016 -0.160805856
1020016000.0 0.177544768 -0.174181616
1035015500.0 0.167582784 -0.198695408
1050015000.0 0.154299664 -0.208456416
1065014500.0 0.158542368 -0.235447296
1080014000.0 0.139224832 -0.250780736
1095013500.0 0.140579216 -0.258636032
1110013000.0 0.123800312 -0.266016304
1125012500.0 0.11060004 -0.280093696
1140012000.0 0.113332248 -0.285857248
1155011500.0 0.094794208 -0.278090912
1170011000.0 0.105455224 -0.280488192
1185010500.0 0.087327864 -0.257109456
1200010000.0 0.080307072 -0.237684208
1215009500.0 0.082595064 -0.21730016
1230009000.0 0.080167912 -0.185281008
1245008500.0 0.070962112 -0.151588832
1260008000.0 0.063644424 -0.109079856
1275007500.0 0.07297344 -0.101379728
1290007000.0 0.074755936 -0.078003192
1305006500.0 0.06292922 -0.038990376
1320006000.0 0.088977528 -0.030015286
1335005500.0 0.088218352 -0.01735014
1350005000.0 0.103787248 -0.003912172
1365004500.0 0.131042392 -0.001726953
1380004000.0 0.132931768 -0.01192357
1395003500.0 0.168090816 -0.033399724
1410003000.0 0.180517648 -0.07025504
1425002500.0 0.209567504 -0.082878056
1440002000.0 0.285019648 -0.104273616
1455001500.0 0.32963168 -0.139375824
1470001000.0 0.420356576 -0.066667916
1485000500.0 0.456744192 -0.04528768
1500000000.0 0.4265816 0.017647584
