! Created with skrf 1.12.0 (http://scikit-rf.org).
# Hz S RI R 50.0 
!freq ReS11 ImS11
!
100000000.0 0.9958638370557614 -0.03789034690299659
105000000.0 0.9953541042413682 -0.03963538925893341
110000000.0 0.9949018963113045 -0.04153773224171431
115000000.0 0.9945755370422458 -0.043370991414013724
120000000.0 0.9939677681260066 -0.04502556623030287
125000000.0 0.9934996126833414 -0.04701459902831478
130000000.0 0.9930037819914251 -0.04890500996448054
135000000.0 0.9924669096394064 -0.05064584906267318
140000000.0 0.9918579179995596 -0.05241449083706178
145000000.0 0.9913990576948625 -0.05419180818433188
150000000.0 0.9907291152409553 -0.05602078351951597
155000000.0 0.9902184015684271 -0.057673129435622535
160000000.0 0.9895909390312402 -0.05951103804502232
165000000.0 0.9889630500426256 -0.061106114615965476
170000000.0 0.9884804787840374 -0.06286231335328299
175000000.0 0.9878185129321693 -0.06462478334349094
180000000.0 0.987037162271136 -0.06614871261238384
185000000.0 0.986392018813887 -0.06790335159472227
190000000.0 0.985795163521512 -0.06962496769705856
195000000.0 0.9850809829409103 -0.07133425621671802
200000000.0 0.9842532187490364 -0.07282937429989539
205000000.0 0.9835222755784958 -0.07461514055716349
210000000.0 0.9828601703222655 -0.0762093092164277
215000000.0 0.9819634505782973 -0.07770352713283024
220000000.0 0.9812627051359852 -0.07946839713139842
225000000.0 0.980308984425542 -0.080880647078152
230000000.0 0.9795386845890258 -0.08246404214922146
235000000.0 0.9788402172118468 -0.08396029279920332
240000000.0 0.977928280610161 -0.08551244559285531
245000000.0 0.9771889462116078 -0.08699945196570415
250000000.0 0.976439575818257 -0.08856950422277968
255000000.0 0.9754779861537269 -0.09004134264886361
260000000.0 0.9746537643600408 -0.09147079554897436
265000000.0 0.9738011288990156 -0.09301089555201458
270000000.0 0.9726897412217591 -0.09444458003568135
275000000.0 0.9718547135381941 -0.09589707974154117
280000000.0 0.971004838542143 -0.0972761843626044
285000000.0 0.9701100881384903 -0.0985852254549564
290000000.0 0.9691400004736279 -0.10009990365283838
295000000.0 0.9683703210480614 -0.10140690802046834
300000000.0 0.9673757054125875 -0.10281301907364088
305000000.0 0.9665713002623891 -0.10398397206908701
310000000.0 0.9655414383615203 -0.10539130588897973
315000000.0 0.9645726285006652 -0.10675906696638592
320000000.0 0.9636901259369394 -0.10800580509250941
325000000.0 0.962701067382943 -0.10924521181853036
330000000.0 0.9617122854146917 -0.11048630581795449
335000000.0 0.960745991043584 -0.11174642501004342
340000000.0 0.9599299482528703 -0.11299695927934666
345000000.0 0.9589116695137564 -0.11412673158396078
350000000.0 0.9579133962988567 -0.1152729338254814
355000000.0 0.9569429669038731 -0.11642697438926815
360000000.0 0.955895389704634 -0.11769791247597773
365000000.0 0.9547770004228744 -0.11890720215585769
370000000.0 0.9538717331645639 -0.1200256128802907
375000000.0 0.9528753267928274 -0.12104345496252925
380000000.0 0.9519847026619179 -0.1221663579714321
385000000.0 0.9509388580352262 -0.1232974149616746
390000000.0 0.949968959727077 -0.12437114426633789
395000000.0 0.949001713011863 -0.12532750862151712
400000000.0 0.9479064869978361 -0.12651015810831845
405000000.0 0.9470220124032166 -0.12753700423704398
410000000.0 0.9459483788487122 -0.12853168905374646
415000000.0 0.9450844984949595 -0.1294310320625671
420000000.0 0.9439411159506595 -0.1303948578730257
425000000.0 0.9429711081654941 -0.1314353577697462
430000000.0 0.9419658150997003 -0.13233170697585991
435000000.0 0.9411188663314904 -0.1332382812225653
440000000.0 0.9400593474040828 -0.134256712042429
445000000.0 0.9390102012370626 -0.13518454606028443
450000000.0 0.9379450148125953 -0.13616904832246493
455000000.0 0.9369998121437924 -0.13704083384711707
460000000.0 0.9359814381179338 -0.13785435246807004
465000000.0 0.9351383363806998 -0.13873242758203982
470000000.0 0.9340902614167825 -0.1395768794071268
475000000.0 0.9331721161969003 -0.1404353161257879
480000000.0 0.9321590643582139 -0.14115692965467624
485000000.0 0.9311512681103242 -0.14193247614570914
490000000.0 0.9301184665012283 -0.14280680784747582
495000000.0 0.9292232415474225 -0.14345763653821916
500000000.0 0.9282603649942538 -0.14421411361865738
505000000.0 0.9272502014179654 -0.14497237858556855
510000000.0 0.9263283953268812 -0.14564371268931556
515000000.0 0.9252809801649358 -0.14642133033651972
520000000.0 0.9242787180186764 -0.14701920902502513
525000000.0 0.923365978241149 -0.14791963249510898
530000000.0 0.922477430459506 -0.14851010886946095
535000000.0 0.9213964676511216 -0.14920619631365603
540000000.0 0.9205303868458947 -0.14992919092481607
545000000.0 0.9195132866587914 -0.15061048658226142
550000000.0 0.918649956330127 -0.15114733938819275
555000000.0 0.9178349683544713 -0.1517735899091891
560000000.0 0.9167036008667451 -0.15235717822155853
565000000.0 0.9159598271967723 -0.15301214088827658
570000000.0 0.9148604073028337 -0.15352317690869516
575000000.0 0.9140349831623322 -0.15406317233409897
580000000.0 0.9130045111956637 -0.15467200021250158
585000000.0 0.9121997247571779 -0.1552305943366231
590000000.0 0.9113058885479739 -0.15570065378841236
595000000.0 0.9103666113516106 -0.1562503149846847
600000000.0 0.9094225228559631 -0.1567827832276551
605000000.0 0.9085886458356984 -0.1573520624422215
610000000.0 0.9076511788653978 -0.15774603733015227
615000000.0 0.9068161903798205 -0.15825634326667282
620000000.0 0.9059927553039635 -0.15866342631266253
625000000.0 0.9051160337316477 -0.15916182556906985
630000000.0 0.9042378219075791 -0.159559998717596
635000000.0 0.9033926131265533 -0.1599985296335453
640000000.0 0.9024794852297578 -0.16039789717203035
645000000.0 0.9014855229728962 -0.1609180927309749
650000000.0 0.900832135901276 -0.16129660916767238
655000000.0 0.8999796949432781 -0.16167767866667962
660000000.0 0.8991189050735034 -0.16191343008433728
665000000.0 0.8982757649352062 -0.16240780261612386
670000000.0 0.897579488590118 -0.16272551283677342
675000000.0 0.8966617076709542 -0.163216357998396
680000000.0 0.8956991200869244 -0.1635028318639073
685000000.0 0.8949070212513783 -0.16384306179328212
690000000.0 0.8941994760114901 -0.16425959260852852
695000000.0 0.8933124882931461 -0.1644812004515773
700000000.0 0.8924493351741494 -0.1647696125026754
705000000.0 0.8916197870052945 -0.16519450806902328
710000000.0 0.8909960638495539 -0.16543222198804855
715000000.0 0.8901817813432563 -0.16575485350444896
720000000.0 0.889423000875992 -0.16604730534978743
725000000.0 0.8885960742077074 -0.1662533026199503
730000000.0 0.8878299378160812 -0.16647158966307268
735000000.0 0.8870885796394271 -0.16684824426117517
740000000.0 0.8861736887195476 -0.1670524464287084
745000000.0 0.88549934643703 -0.16724005894853464
750000000.0 0.8847514712729213 -0.1675790298310214
755000000.0 0.8840657881820202 -0.1678414398896676
760000000.0 0.8833382445123165 -0.16799928402270228
765000000.0 0.8825136411884162 -0.16833973918462536
770000000.0 0.8817471518012578 -0.16851267004954346
775000000.0 0.8811684343879057 -0.16880854442090917
780000000.0 0.8803360122303036 -0.16899258467476877
785000000.0 0.8795704578349988 -0.16921822203950398
790000000.0 0.8788566742814715 -0.16941160144165585
795000000.0 0.8781947193831605 -0.16953460026526146
800000000.0 0.8774244996075331 -0.16977260161250307
805000000.0 0.8767871224692645 -0.1699464914034018
810000000.0 0.876086926640345 -0.17005821794615764
815000000.0 0.8754182828413468 -0.1702288214824966
820000000.0 0.8747770818531416 -0.17041769223296738
825000000.0 0.874023830453992 -0.1705658533268267
830000000.0 0.8733458351933024 -0.17070536399804745
835000000.0 0.8726937208352075 -0.1708343608336529
840000000.0 0.872027273086998 -0.17101248167873814
845000000.0 0.8714342522299421 -0.1711837544266382
850000000.0 0.8706971707372103 -0.17129556038779226
855000000.0 0.8701020757851313 -0.1714888231189335
860000000.0 0.8694661974234222 -0.17161202762052524
865000000.0 0.8687138574731817 -0.17170284517801357
870000000.0 0.8681263431759115 -0.17181276844877216
875000000.0 0.8674682412670673 -0.1720023329641453
880000000.0 0.866936329471983 -0.17208125402456784
885000000.0 0.8662339907967327 -0.17210894541350896
890000000.0 0.8656409326659419 -0.1722403664581485
895000000.0 0.8649246940884255 -0.17231665085551406
900000000.0 0.8643451091291344 -0.17235391724017812
905000000.0 0.8636491643343173 -0.1725481222078187
910000000.0 0.8630809750031361 -0.1725255795317687
915000000.0 0.8624821565570314 -0.17267300361070248
920000000.0 0.8618609115234532 -0.17276016412928702
925000000.0 0.8612110788158951 -0.17288307060106345
930000000.0 0.8606253548328133 -0.1729737512394845
935000000.0 0.8601526089455296 -0.17308146165635802
940000000.0 0.8594869983745397 -0.17304076735473375
945000000.0 0.8588502982101036 -0.17305379238849933
950000000.0 0.8582393504108043 -0.17304366115457076
955000000.0 0.8576265428612467 -0.17310026054292207
960000000.0 0.8571980168437525 -0.17320125803648143
965000000.0 0.8564802041576441 -0.17311056590718807
970000000.0 0.855968655049585 -0.17319067356092963
975000000.0 0.8553312844827046 -0.17322997900007134
980000000.0 0.8549434076021735 -0.17329450427875695
985000000.0 0.8543730445714678 -0.17336944825561867
990000000.0 0.8537646059940521 -0.17332733603704634
995000000.0 0.853231941675975 -0.17336313282341237
1000000000.0 0.8527005361560063 -0.1734577313096216
1005000000.0 0.8521842714142351 -0.17344019024743462
1010000000.0 0.8515850426365936 -0.1733897930183038
1015000000.0 0.8511565930555918 -0.1734799324238932
1020000000.0 0.8506483203855489 -0.17347235827717708
1025000000.0 0.8500557296294305 -0.17332811536383974
1030000000.0 0.8495002375082553 -0.17347391974048354
1035000000.0 0.8490170333938782 -0.17338385323175468
1040000000.0 0.8484871089073586 -0.1734357263708819
1045000000.0 0.8478993171763425 -0.17328047419938672
1050000000.0 0.8474507526971171 -0.17336092075250578
1055000000.0 0.8468651516513265 -0.17320435145544152
1060000000.0 0.8463614665567278 -0.17328467638347067
1065000000.0 0.8458526241499045 -0.1732009149890933
1070000000.0 0.845318464100823 -0.17319363304583668
1075000000.0 0.8449933196304517 -0.17320737886446827
1080000000.0 0.844361618371317 -0.17309332364804497
1085000000.0 0.8438102005768613 -0.17303183961873386
1090000000.0 0.8433134064296519 -0.1730285142265219
1095000000.0 0.842904777138189 -0.17295208993934408
1100000000.0 0.8423148282414199 -0.17284391432592672
1105000000.0 0.8419034185494275 -0.17285908116382548
1110000000.0 0.841433306128845 -0.17272726369376598
1115000000.0 0.8408434384010147 -0.1727313032403243
1120000000.0 0.8404367544716569 -0.17265559296605323
1125000000.0 0.8398790954109193 -0.17256693890702388
1130000000.0 0.8394115299208006 -0.17251939682634146
1135000000.0 0.8388908139793546 -0.17238770661349254
1140000000.0 0.8385555916695072 -0.1723512434431858
1145000000.0 0.8380598105698522 -0.17217270349588515
1150000000.0 0.8375880494917491 -0.17208692886785404
1155000000.0 0.8370655233836272 -0.17193875648825097
1160000000.0 0.8366242854023753 -0.17184028609058485
1165000000.0 0.8361227347430618 -0.17172391879200904
1170000000.0 0.8356899594663036 -0.1716319855973514
1175000000.0 0.8351610261501234 -0.17155217385369526
1180000000.0 0.8347278258165769 -0.1713756933228483
1185000000.0 0.8341654220296486 -0.17131842155512417
1190000000.0 0.8337954704132573 -0.17121200496891012
1195000000.0 0.8333084167833433 -0.1711580927843442
1200000000.0 0.8328600776052602 -0.1709883362619961
1205000000.0 0.8322366213715802 -0.17085965637755485
1210000000.0 0.8318523192038598 -0.1707690853099199
1215000000.0 0.8315111921690197 -0.17063338779617898
1220000000.0 0.8308280717474363 -0.1704533165253498
1225000000.0 0.8305272881101151 -0.17031573365218905
1230000000.0 0.8300846531123095 -0.17015120176905224
1235000000.0 0.8295636358138457 -0.16990002302897297
1240000000.0 0.8290385716305978 -0.16994090362092293
1245000000.0 0.8286370147836273 -0.16975053259554768
1250000000.0 0.828174435650959 -0.16963535285237413
1255000000.0 0.8277608022362027 -0.16954826777422558
1260000000.0 0.8271291552371588 -0.16924685413518914
1265000000.0 0.8267803392826867 -0.16894652092839793
1270000000.0 0.8263713322263097 -0.1688924303732754
1275000000.0 0.8260034529336246 -0.1687610567259987
1280000000.0 0.8254011797320049 -0.16865513999428935
1285000000.0 0.8248405650068977 -0.16831412930873724
1290000000.0 0.8243673159227989 -0.1681572423176868
1295000000.0 0.8239590400200054 -0.16812877031813803
1300000000.0 0.8234423885081784 -0.16801454218684292
1305000000.0 0.822854975682497 -0.16769838203609064
1310000000.0 0.8225457646493881 -0.16764531547749795
1315000000.0 0.8220357132548949 -0.16734507418693734
1320000000.0 0.8215677446342802 -0.16720596422533393
1325000000.0 0.8211604470931957 -0.16700962292757238
1330000000.0 0.8206838897140565 -0.16703197373312734
1335000000.0 0.8201632809434368 -0.16670505598489774
1340000000.0 0.8195865219367692 -0.16650899364274788
1345000000.0 0.819107170907108 -0.16637151951701487
1350000000.0 0.8186979883254497 -0.1661653588703529
1355000000.0 0.8182448737380063 -0.16608408746855097
1360000000.0 0.8177710651840129 -0.1658434318267392
1365000000.0 0.8171988901460022 -0.16562135966267827
1370000000.0 0.8169008807803694 -0.16554005859642268
1375000000.0 0.8162990999055705 -0.16539785661748438
1380000000.0 0.8158658888826636 -0.1653234600690263
1385000000.0 0.8153441839082113 -0.16504650579205643
1390000000.0 0.8147867404242929 -0.16475302070182138
1395000000.0 0.814261667829721 -0.16464584606008686
1400000000.0 0.8138591640690582 -0.16458868457583659
1405000000.0 0.8133619708918104 -0.16443832231894534
1410000000.0 0.8129142422272422 -0.16416481114277304
1415000000.0 0.8123632484095868 -0.16406027358968092
1420000000.0 0.811832101156825 -0.16387140642662093
1425000000.0 0.8114319280290697 -0.163772895829517
1430000000.0 0.8109087127393854 -0.16356970285004338
1435000000.0 0.8102953693843935 -0.16329166133085052
1440000000.0 0.8098353568279303 -0.16318253878825079
1445000000.0 0.8092708924175187 -0.16308074963327981
1450000000.0 0.8088788078836997 -0.16289332982640004
1455000000.0 0.8083739715164191 -0.16257931425089134
1460000000.0 0.8078894873966586 -0.1624718552735683
1465000000.0 0.8073138189314192 -0.1623258027982622
1470000000.0 0.8069175097770231 -0.16210930475245194
1475000000.0 0.8062488091106418 -0.1620340334519086
1480000000.0 0.8059238617619843 -0.1618875377320563
1485000000.0 0.8054148716144548 -0.1617099526200154
1490000000.0 0.8048754414227645 -0.16143365067125687
1495000000.0 0.8044460639192339 -0.1613809865880719
1500000000.0 0.8039357172145686 -0.16126066683740947
1505000000.0 0.8033742069855607 -0.16111951338679298
1510000000.0 0.8028257018063628 -0.1609072609572225
1515000000.0 0.8025326015651691 -0.16084048239891316
1520000000.0 0.8018269371174223 -0.1606815137333386
1525000000.0 0.8013646076972184 -0.1604523796177678
1530000000.0 0.8008818928279686 -0.16043624666872625
1535000000.0 0.8003881034263525 -0.16029456721902485
1540000000.0 0.7997397710550952 -0.16008213850544434
1545000000.0 0.7994444252918554 -0.16007572076489224
1550000000.0 0.7988845023205894 -0.15988325600274256
1555000000.0 0.7983679582477705 -0.15967467454253045
1560000000.0 0.7979264871913787 -0.15953379077512528
1565000000.0 0.7975881558101242 -0.15948132697780334
1570000000.0 0.7968326764216223 -0.15927868532476375
1575000000.0 0.7963108423499125 -0.15922628377392478
1580000000.0 0.795881703744279 -0.15904176585237187
1585000000.0 0.7952871188536678 -0.15902953187939645
1590000000.0 0.7948381534938127 -0.15877292745130261
1595000000.0 0.7941876525299179 -0.15862206582536084
1600000000.0 0.793699827761006 -0.15856358834480724
1605000000.0 0.7931126279948686 -0.15858085969287924
1610000000.0 0.792718290783321 -0.15843936706534667
1615000000.0 0.7922685082590223 -0.1582098813262429
1620000000.0 0.7917349475232909 -0.15809612856902655
1625000000.0 0.7912195444323186 -0.15792683029429558
1630000000.0 0.7907638566657457 -0.1579251508642297
1635000000.0 0.7901345040841659 -0.15765659083125608
1640000000.0 0.7897652674096723 -0.15766345976482438
1645000000.0 0.7891174148810076 -0.15758495905222447
1650000000.0 0.788626950910197 -0.1574161933798488
1655000000.0 0.7882732208142906 -0.1572656936097612
1660000000.0 0.787779359146257 -0.15731302984456852
1665000000.0 0.7872151432297636 -0.15730195783000933
1670000000.0 0.7866430833722962 -0.15711632674974657
1675000000.0 0.7862098680836476 -0.1571321914485809
1680000000.0 0.7856998268568186 -0.15690117824468838
1685000000.0 0.7851801951994783 -0.15681524295895777
1690000000.0 0.7847436464654336 -0.1568257644854713
1695000000.0 0.7842275154087585 -0.15667035545822944
1700000000.0 0.7837591339499388 -0.15648912475783372
1705000000.0 0.7833627852295991 -0.15638264103355665
1710000000.0 0.7827184098878197 -0.15635646512777118
1715000000.0 0.7821501644317225 -0.15620543838832412
1720000000.0 0.7818292439285301 -0.15617848844453153
1725000000.0 0.7812462952490414 -0.15621179284926545
1730000000.0 0.7809234684007235 -0.15596923039442276
1735000000.0 0.7802848743807562 -0.1559325206384018
1740000000.0 0.779853816075986 -0.15594351592598202
1745000000.0 0.7792807601565894 -0.15578043674486006
1750000000.0 0.7787760561216328 -0.15574774926658122
1755000000.0 0.7781402807223681 -0.155664381852043
1760000000.0 0.7775508202551321 -0.1557265030414951
1765000000.0 0.7770659508221724 -0.1556691096975798
1770000000.0 0.7764217949021788 -0.15560051204825942
1775000000.0 0.775931004551768 -0.15566882217587064
1780000000.0 0.7754905286107993 -0.15572096418919829
1785000000.0 0.7749659883567497 -0.15558872687199182
1790000000.0 0.7745428157951805 -0.1555117832196921
1795000000.0 0.7740290843370341 -0.15553189654450367
1800000000.0 0.7735910842395278 -0.15548342373944038
1805000000.0 0.7730276668021994 -0.15536385371060202
1810000000.0 0.7725656220629894 -0.15545129073355263
1815000000.0 0.7720050467536002 -0.155364254634296
1820000000.0 0.7715303200427789 -0.15556304077845517
1825000000.0 0.7710928673370321 -0.1555088397514267
1830000000.0 0.7706532417109201 -0.1556431225977215
1835000000.0 0.7700947275404678 -0.15556248721469124
1840000000.0 0.7696172138943436 -0.1555310222601947
1845000000.0 0.7690257702906115 -0.15550527941483955
1850000000.0 0.768713796861958 -0.15557437010332514
1855000000.0 0.7682165830291616 -0.15563521729120833
1860000000.0 0.76794316824376 -0.15576644504029202
1865000000.0 0.7670648710844654 -0.15531345569917301
1870000000.0 0.766665776235731 -0.15557637101093205
1875000000.0 0.7663889594007534 -0.15567674417807129
1880000000.0 0.7657572782535048 -0.1555576364123932
1885000000.0 0.7651940132834026 -0.1556744148638171
1890000000.0 0.7647689016853524 -0.15576592002801218
1895000000.0 0.7643403388968167 -0.15584917964311965
1900000000.0 0.76379686512345 -0.15580804000037865
1905000000.0 0.763114761599156 -0.1558624915170998
1910000000.0 0.7627531011812678 -0.15605767724357297
1915000000.0 0.7621505472131038 -0.15591594713977905
1920000000.0 0.7617514802859092 -0.15593052605237923
1925000000.0 0.7613084897243299 -0.15597364549494208
1930000000.0 0.7608656495441046 -0.15605918214804854
1935000000.0 0.7604296263476847 -0.15612384607077343
1940000000.0 0.7599667986342035 -0.15627832254646648
1945000000.0 0.7594473864518835 -0.15642770827658053
1950000000.0 0.7590918362577218 -0.1564218587348061
1955000000.0 0.7585575373495012 -0.1565156149753547
1960000000.0 0.7580053265808613 -0.15672840257797166
1965000000.0 0.757623044395408 -0.1567448040442245
1970000000.0 0.7570833502008211 -0.15684570651585267
1975000000.0 0.7566459885842304 -0.1571952394603156
1980000000.0 0.7562740116044917 -0.15725749944996734
1985000000.0 0.7556984759289388 -0.157462184801113
1990000000.0 0.7550787220062855 -0.1575858175089735
1995000000.0 0.7547512260221991 -0.1577243397183918
2000000000.0 0.7542659029570725 -0.15785277835908965
2005000000.0 0.7538357045114921 -0.15800781834230623
2010000000.0 0.7532573104498461 -0.15823047667156995
2015000000.0 0.7529076635033365 -0.15828803366827526
2020000000.0 0.7523752511351204 -0.15861214046013028
2025000000.0 0.7519514549491662 -0.15880849218219328
2030000000.0 0.7513768761779721 -0.15893683877647044
2035000000.0 0.7509894168616632 -0.15913954658025684
2040000000.0 0.7506149310170425 -0.1594235482605952
2045000000.0 0.7501121870289092 -0.15962649548088892
2050000000.0 0.7495957377729986 -0.15990576867668319
2055000000.0 0.7492565762795238 -0.16015149771229953
2060000000.0 0.7487391311417032 -0.16030287635654827
2065000000.0 0.7483406544720536 -0.16059380674918994
2070000000.0 0.7478765232041347 -0.16092804049191206
2075000000.0 0.7474216218314738 -0.16113627132975833
2080000000.0 0.7469832481032306 -0.1614568699556426
2085000000.0 0.7464826992360831 -0.16174419845798788
2090000000.0 0.746100961807981 -0.1621031554017573
2095000000.0 0.7457046265132894 -0.16232692989269487
2100000000.0 0.7453271202042729 -0.1626560863328595
2105000000.0 0.7449989881663535 -0.162826963850593
2110000000.0 0.7445819757133372 -0.16322619670489727
2115000000.0 0.7441895114217207 -0.1635557511294478
2120000000.0 0.7438652039164544 -0.16376205841857996
2125000000.0 0.7434025380911937 -0.16405942788766775
2130000000.0 0.7429628064493904 -0.16440662129735506
2135000000.0 0.7426899204940484 -0.16474182432432305
2140000000.0 0.7423431165368762 -0.16505678141256558
2145000000.0 0.742007806852946 -0.165403746134041
2150000000.0 0.741636287747527 -0.16588741152229583
2155000000.0 0.7412735453064432 -0.16630432112221946
2160000000.0 0.740978234815365 -0.16669656868403573
2165000000.0 0.740591397042519 -0.16704761217438857
2170000000.0 0.7402643639886181 -0.1673758874052327
2175000000.0 0.7399428125448057 -0.16775588889840096
2180000000.0 0.7396536022991869 -0.168214480088039
2185000000.0 0.7392682711801177 -0.16863257684672917
2190000000.0 0.7390309041293956 -0.16929968086228073
2195000000.0 0.7385526058654589 -0.1694047254588472
2200000000.0 0.7382885623302372 -0.17003148727727602
2205000000.0 0.7379604143868685 -0.1704028404067142
2210000000.0 0.7376935004354698 -0.1708224336220301
2215000000.0 0.7373895271223775 -0.1713539878818667
2220000000.0 0.7371115801640599 -0.17173260875806573
2225000000.0 0.736845493336318 -0.1721944063775885
2230000000.0 0.7366212753297576 -0.17280104699483373
2235000000.0 0.7362316891823535 -0.17323317017339548
2240000000.0 0.7359804272441167 -0.17365343158092655
2245000000.0 0.7357130522865697 -0.1741516359174265
2250000000.0 0.735471776484325 -0.1745827540785189
2255000000.0 0.7353469675992641 -0.17521487189317503
2260000000.0 0.7350760381137197 -0.17573148939991506
2265000000.0 0.7349211583571948 -0.17626624667373236
2270000000.0 0.7346007763619468 -0.17674524353257992
2275000000.0 0.7344656202524062 -0.1771798858027876
2280000000.0 0.7343192034986639 -0.17771505523831557
2285000000.0 0.734112253661447 -0.17826828621262153
2290000000.0 0.7340297862849118 -0.1787259988608283
2295000000.0 0.7337194177376599 -0.17914983768556947
2300000000.0 0.733595104220339 -0.17973485067761344
2305000000.0 0.7333218930174608 -0.18013306321809847
2310000000.0 0.7332072939606241 -0.18066285208225483
2315000000.0 0.7329687326511128 -0.18111740590544104
2320000000.0 0.73285902330859 -0.18157038803909725
2325000000.0 0.7326790033406888 -0.18226372824749537
2330000000.0 0.7325575296447965 -0.18276435480773362
2335000000.0 0.7323815196066994 -0.18333165984750804
2340000000.0 0.7322683520450387 -0.18385380863117642
2345000000.0 0.7320942339742924 -0.1843325631467493
2350000000.0 0.7319387947355153 -0.18491873546230325
2355000000.0 0.731810877131914 -0.18541153438501012
2360000000.0 0.7316635711119449 -0.1859930733749691
2365000000.0 0.7316058460896643 -0.1866057771611991
2370000000.0 0.7314702520830213 -0.18709511797255346
2375000000.0 0.7313575389061426 -0.18778834373661865
2380000000.0 0.7312701100499993 -0.1884021027177745
2385000000.0 0.7312589376430995 -0.1889939010101234
2390000000.0 0.7311752896170934 -0.18962404781138695
2395000000.0 0.7310804370164607 -0.190175057736675
2400000000.0 0.7311015267080333 -0.1907409191010291
2405000000.0 0.7310762852861351 -0.19142177247078573
2410000000.0 0.7311898083557952 -0.19191449251945386
2415000000.0 0.7310960059437523 -0.192473497557743
2420000000.0 0.7310196147467638 -0.19304224492998734
2425000000.0 0.7311904874484497 -0.19379828085496417
2430000000.0 0.7309951324503365 -0.1941662413848704
2435000000.0 0.7311745158775605 -0.19464630227838967
2440000000.0 0.7311817968522235 -0.19537104863782387
2445000000.0 0.7312354235169227 -0.1960049083868893
2450000000.0 0.7312707258160975 -0.19663511678418993
2455000000.0 0.7313243093394792 -0.1971801990826062
2460000000.0 0.7314369160559145 -0.19770875144616717
2465000000.0 0.7315357055196721 -0.19841521187110356
2470000000.0 0.731579873355583 -0.19902203116571984
2475000000.0 0.7317180920679902 -0.1995150798177653
2480000000.0 0.7319182723708365 -0.20009667436421544
2485000000.0 0.7319370298866319 -0.20065419124879577
2490000000.0 0.7321965021355364 -0.2012719520035717
2495000000.0 0.7321341422395058 -0.2018034706738351
2500000000.0 0.7325167170643165 -0.202533364810409
2505000000.0 0.7325456986740516 -0.20291626892937706
2510000000.0 0.7327284286339028 -0.2034957998858954
2515000000.0 0.7329298385041517 -0.20407526857303493
2520000000.0 0.7330207789721881 -0.2044851494655859
2525000000.0 0.7332381931643981 -0.20511241848252595
2530000000.0 0.7336037186956497 -0.20570238890756107
2535000000.0 0.7336296341293217 -0.20618186145604345
2540000000.0 0.7338284015511668 -0.20653452271468192
2545000000.0 0.7339723142402644 -0.20719761716316312
2550000000.0 0.7341066860964717 -0.2077275640606153
2555000000.0 0.7342274653748677 -0.20809909845639873
2560000000.0 0.7343700595514976 -0.20873475809891243
2565000000.0 0.7345386939739165 -0.2091503511861701
2570000000.0 0.7346920716931215 -0.2097200097420843
2575000000.0 0.7348698046569718 -0.21025953706076303
2580000000.0 0.7351081976131302 -0.2108769742183492
2585000000.0 0.7353161372952371 -0.21132864748221633
2590000000.0 0.735520658851252 -0.21186360509547655
2595000000.0 0.7358109938553289 -0.212456819470134
2600000000.0 0.7360526510398858 -0.21297225714755041
2605000000.0 0.7363943706557157 -0.21360153264465012
2610000000.0 0.736579183392766 -0.2141884262425327
2615000000.0 0.7368928029881483 -0.2146068055400047
2620000000.0 0.7371989104037145 -0.21518858647185324
2625000000.0 0.7375198827105963 -0.21553500804758433
2630000000.0 0.7377786120288286 -0.21611335837085946
2635000000.0 0.7381121700175773 -0.2167045528822122
2640000000.0 0.7384522370323385 -0.21702388684183452
2645000000.0 0.7387198412680162 -0.2176488907420432
2650000000.0 0.7391098813345264 -0.21797413671561694
2655000000.0 0.7394526632726964 -0.21850974463014858
2660000000.0 0.7397423098687084 -0.21878933280405616
2665000000.0 0.7400590464435838 -0.219254397909076
2670000000.0 0.7404243716368287 -0.21956393591607215
2675000000.0 0.7407293019457789 -0.22017617263604167
2680000000.0 0.7409354792263521 -0.22040649058971004
2685000000.0 0.7412957290017126 -0.22081105064242654
2690000000.0 0.7416497569814137 -0.22124424934039258
2695000000.0 0.7418937497317658 -0.22173246496368226
2700000000.0 0.7421921654317682 -0.2222379916429406
2705000000.0 0.7424709836805303 -0.2225904611295197
2710000000.0 0.7428795779107442 -0.2230894071668477
2715000000.0 0.7432504218089869 -0.22355487917938446
2720000000.0 0.7436675441389846 -0.2241331567480169
2725000000.0 0.7440789535933723 -0.2245085308755306
2730000000.0 0.7444134596177614 -0.2248231597986504
2735000000.0 0.744868882244767 -0.2252626854916802
2740000000.0 0.7451773711140556 -0.22595942165398827
2745000000.0 0.7456425173201401 -0.22622714319172718
2750000000.0 0.7460841716868054 -0.22669498186004272
2755000000.0 0.7467059146506382 -0.22721366188593728
2760000000.0 0.7471676568770699 -0.22740908730397827
2765000000.0 0.7475651560609652 -0.22794433114895216
2770000000.0 0.7479315466631027 -0.2281762073714099
2775000000.0 0.7486059067200629 -0.22861998250718615
2780000000.0 0.7490014633837857 -0.22897120340633972
2785000000.0 0.7494242398310571 -0.22915655460491285
2790000000.0 0.7500160804317069 -0.22975596307159096
2795000000.0 0.7506053280174282 -0.22993040136412143
2800000000.0 0.7510347382572395 -0.23009134735269687
2805000000.0 0.7514835835028327 -0.2301621050664882
2810000000.0 0.7521012890367507 -0.23043774918714366
2815000000.0 0.752445068586328 -0.23038609356724127
2820000000.0 0.7528703115083762 -0.23073244538015364
2825000000.0 0.7534602740825532 -0.23091278821749908
2830000000.0 0.7538804526272866 -0.23106708593755676
2835000000.0 0.7542823104249933 -0.23125256905197455
2840000000.0 0.7546990349421111 -0.2312283175550465
2845000000.0 0.7551500794096643 -0.23135486034291278
2850000000.0 0.7557234520934494 -0.23141692806478073
2855000000.0 0.7560995341482194 -0.23178749105905955
2860000000.0 0.7564284051327607 -0.2318079148838873
2865000000.0 0.7568258461899694 -0.2319996444396517
2870000000.0 0.7572308468771368 -0.23223430215245816
2875000000.0 0.7577932636130975 -0.23246690173239887
2880000000.0 0.7582143154857951 -0.23274207943925734
2885000000.0 0.7587389950118247 -0.23289531076945094
2890000000.0 0.7592774985367691 -0.23301291349739964
2895000000.0 0.7599334501463693 -0.23318021319609886
2900000000.0 0.7604226247355235 -0.23325415149694567
2905000000.0 0.7610372251386003 -0.2333392309241534
2910000000.0 0.7616124803622576 -0.23317728970833712
2915000000.0 0.7621771117733748 -0.23317158945798874
2920000000.0 0.7626864803015193 -0.2331195379284271
2925000000.0 0.7630795489060221 -0.23297333882947766
2930000000.0 0.7635220420182227 -0.23280411172888768
2935000000.0 0.7640060232359812 -0.23274238420717727
2940000000.0 0.7643121918027366 -0.23258082521470078
2945000000.0 0.7646468847727407 -0.23237184114007048
2950000000.0 0.765003381302674 -0.2323234478761786
2955000000.0 0.765258715050398 -0.23222572957732918
2960000000.0 0.765467851579578 -0.2321922076573813
2965000000.0 0.7658465258657007 -0.23198695751867135
2970000000.0 0.7660852550028718 -0.23211760694622982
2975000000.0 0.7663524351320143 -0.2320204920513172
2980000000.0 0.7666089966214855 -0.23192113402505418
2985000000.0 0.7669378788726681 -0.2319205404872539
2990000000.0 0.7672958792407086 -0.23195215694830534
2995000000.0 0.7676476277080101 -0.2319445484947765
3000000000.0 0.7678765933894995 -0.2320627822943189
3005000000.0 0.7687274563743854 -0.23111316793287814
3010000000.0 0.7688663944036365 -0.23118637929682637
3015000000.0 0.7691564070055669 -0.23115528950300648
3020000000.0 0.7692609595524897 -0.23121970548999374
3025000000.0 0.7698077794887073 -0.23097589691409284
3030000000.0 0.7700449073990198 -0.23134443210214992
3035000000.0 0.7701923919967548 -0.23136994215828754
3040000000.0 0.7709805865955933 -0.23132184249869972
3045000000.0 0.771535601969938 -0.23154277081479482
3050000000.0 0.7721088339077242 -0.2317075433103931
3055000000.0 0.7721883158402166 -0.2316416308081988
3060000000.0 0.7731592700368332 -0.23118759296384672
3065000000.0 0.7739237362999705 -0.23121537222679456
3070000000.0 0.7744113292221579 -0.23076698133836254
3075000000.0 0.7750198654020692 -0.23056577817635368
3080000000.0 0.7760610768864339 -0.23024758490248814
3085000000.0 0.7764092859419197 -0.22948773827974875
3090000000.0 0.7771936863447778 -0.2291610876174809
3095000000.0 0.7775932988716215 -0.22845593684570442
3100000000.0 0.777902124792294 -0.2277974397742368
3105000000.0 0.7784623013092574 -0.22704637402912517
3110000000.0 0.7786544888880186 -0.22661171058083607
3115000000.0 0.7787275512998162 -0.22589173197402382
3120000000.0 0.779021980134855 -0.22518179848331038
3125000000.0 0.7789511848588332 -0.22478916876482624
3130000000.0 0.7791234315925541 -0.22408947635972268
3135000000.0 0.7792565301875425 -0.22346166010521615
3140000000.0 0.779155922530958 -0.223019751040371
3145000000.0 0.7790863186028077 -0.22265135597611527
3150000000.0 0.7792964754948273 -0.2220885199797007
3155000000.0 0.7792841993105493 -0.22163340000033435
3160000000.0 0.779305860666259 -0.22142674918496164
3165000000.0 0.7793774855628276 -0.22136129369086227
3170000000.0 0.7794441447815217 -0.22093631423115315
3175000000.0 0.7795148759917553 -0.22071195348396627
3180000000.0 0.7796490716514022 -0.22074406152310755
3185000000.0 0.7798261516987535 -0.22047550041653774
3190000000.0 0.7802267894827943 -0.22022097856425424
3195000000.0 0.7805328886076451 -0.220071444760907
3200000000.0 0.7809297063142399 -0.21990360082277643
3205000000.0 0.7814255294197735 -0.21934509198842878
3210000000.0 0.7819886164779073 -0.21897246476616689
3215000000.0 0.7824155489944782 -0.21842104371634413
3220000000.0 0.782991807649055 -0.21789729913851738
3225000000.0 0.783192775152532 -0.21718632591629788
3230000000.0 0.7833542638199948 -0.21621140700573574
3235000000.0 0.783481375031595 -0.21555671857119216
3240000000.0 0.7834530063437083 -0.21479243321696748
3245000000.0 0.7835796693627971 -0.21429167566086454
3250000000.0 0.7835341911955122 -0.21347634156540982
3255000000.0 0.7836607127539039 -0.2128455551604974
3260000000.0 0.7838858429833108 -0.2123221106198358
3265000000.0 0.7836108126547792 -0.21149847291417695
3270000000.0 0.7837192451889816 -0.21119660387115388
3275000000.0 0.783426178405491 -0.21052599115276285
3280000000.0 0.7835235976512842 -0.2098990370306279
3285000000.0 0.7833200510764146 -0.20970593144497354
3290000000.0 0.7833660918001729 -0.2089298153616066
3295000000.0 0.7831050105816689 -0.20838701790729547
3300000000.0 0.7831038553101072 -0.20787511792194904
3305000000.0 0.783139437554203 -0.2074356993302783
3310000000.0 0.782884215562075 -0.20687680522586088
3315000000.0 0.7829848962775493 -0.2068111114195013
3320000000.0 0.782986795111871 -0.20632899317722952
3325000000.0 0.7829118479038436 -0.20601289684793805
3330000000.0 0.7827790958420039 -0.2053718594828569
3335000000.0 0.7826804902851305 -0.20521075922720705
3340000000.0 0.782723351614413 -0.20451700776000978
3345000000.0 0.7828063860643013 -0.2042948506205588
3350000000.0 0.7828433036710281 -0.20377475427454556
3355000000.0 0.7828419636750628 -0.20314847809805825
3360000000.0 0.7827611608052041 -0.20283120357484025
3365000000.0 0.7826322276355782 -0.20230239598179064
3370000000.0 0.7828601568005078 -0.20200893424641667
3375000000.0 0.7828468610347388 -0.20151810358479033
3380000000.0 0.7828920355028919 -0.20097273790257042
3385000000.0 0.7829545923001545 -0.2003915519611446
3390000000.0 0.7831127234790528 -0.20005212124406022
3395000000.0 0.7827547106445695 -0.1993820285962775
3400000000.0 0.7829237128481575 -0.19898329844502025
3405000000.0 0.782927509038491 -0.1982536076930179
3410000000.0 0.7831300264543898 -0.19748190179983202
3415000000.0 0.7829172017324282 -0.19678549984607424
3420000000.0 0.7831480257534856 -0.19628997535081416
3425000000.0 0.7828620133781489 -0.19564070557756913
3430000000.0 0.7827968130541137 -0.19495920334252806
3435000000.0 0.7825609085967157 -0.1943736818814173
3440000000.0 0.7827036047592997 -0.19367447622711395
3445000000.0 0.7824132453874274 -0.19292945891333438
3450000000.0 0.7822478095408301 -0.19229706187482126
3455000000.0 0.7820125142881221 -0.19152139202833476
3460000000.0 0.7818003414275181 -0.19080903096063143
3465000000.0 0.7814832168430325 -0.19003634847235004
3470000000.0 0.7812260236178605 -0.18947009583446414
3475000000.0 0.7808757717203071 -0.1887365753101148
3480000000.0 0.7804085959040646 -0.18819798772688492
3485000000.0 0.7798652404318465 -0.1874878303669248
3490000000.0 0.7792836263560828 -0.18701750379047924
3495000000.0 0.7789324688459413 -0.18656847156492568
3500000000.0 0.7783393165721266 -0.18628649478513068
3505000000.0 0.7780188932715668 -0.1857316383109742
3510000000.0 0.7775856200625901 -0.18530192562295295
3515000000.0 0.7772537697166876 -0.18516438301139154
3520000000.0 0.7769177122657599 -0.1850506808763931
3525000000.0 0.7767011335493998 -0.1846282247307875
3530000000.0 0.7763556653767131 -0.18457721077495445
3535000000.0 0.776607026006918 -0.1845737016598796
3540000000.0 0.7764537730186786 -0.18397878528200615
3545000000.0 0.7766292207769699 -0.18352315646135658
3550000000.0 0.7768356723448028 -0.18320214926957
3555000000.0 0.7771218523096154 -0.18242308911422916
3560000000.0 0.777204964241442 -0.1813673762052906
3565000000.0 0.7772006763413294 -0.18049911301025176
3570000000.0 0.7771061094242249 -0.1792756843975574
3575000000.0 0.7766858252676553 -0.1778977277177286
3580000000.0 0.7763627569177846 -0.17676192616638678
3585000000.0 0.7757133775667399 -0.1752670354125009
3590000000.0 0.7742595460836463 -0.17406950214597094
3595000000.0 0.7731029688907106 -0.17375227382396533
3600000000.0 0.77178209002503 -0.17328091488363528
3605000000.0 0.7707242480699316 -0.17272800089250595
3610000000.0 0.7695894040247371 -0.17285352839240253
3615000000.0 0.7688535062761386 -0.17300078567335897
3620000000.0 0.7682377765470693 -0.17343845253557072
3625000000.0 0.7676014209000304 -0.17341406225223543
3630000000.0 0.7674765287958472 -0.17339176710953186
3635000000.0 0.7672608906747761 -0.17375110855612552
3640000000.0 0.7670584387220709 -0.17360003196897328
3645000000.0 0.7670566104224231 -0.1733720674983882
3650000000.0 0.7672265345177799 -0.17248996381204093
3655000000.0 0.7668315490191566 -0.1724249254289825
3660000000.0 0.7667340349781728 -0.17176646890367647
3665000000.0 0.7660640606418635 -0.17155221245957253
3670000000.0 0.7661030639630731 -0.17072679753675912
3675000000.0 0.7663845487804344 -0.17038493858617892
3680000000.0 0.7657228488096068 -0.16986805667800603
3685000000.0 0.765288947274207 -0.16927407618710724
3690000000.0 0.7648170210747217 -0.16872229946854614
3695000000.0 0.7647778276225783 -0.16824768898595632
3700000000.0 0.7642622458375439 -0.16743053704814712
3705000000.0 0.7638042275392732 -0.16676476294953654
3710000000.0 0.7634108462304615 -0.16591957901339807
3715000000.0 0.7629116812924306 -0.16500366455790175
3720000000.0 0.7622738132880721 -0.16410648426684765
3725000000.0 0.7615466175161242 -0.16331207186710897
3730000000.0 0.760631492411017 -0.16218713140315996
3735000000.0 0.7594621040744376 -0.16147223731830854
3740000000.0 0.7579623693831692 -0.16092677670917702
3745000000.0 0.7566991391944533 -0.1606863208218494
3750000000.0 0.7553057249873247 -0.16056956577892734
3755000000.0 0.7540180246558026 -0.16095291717528015
3760000000.0 0.7528859476068024 -0.1613381802557516
3765000000.0 0.7519808748806039 -0.1622181834031108
3770000000.0 0.7515455449435392 -0.16272601245948468
3775000000.0 0.7516027543483715 -0.16320554007887159
3780000000.0 0.7521049475260054 -0.1639904198836677
3785000000.0 0.7524286050349613 -0.16364695329567655
3790000000.0 0.7524745869939248 -0.16290332309096736
3795000000.0 0.7524544016264226 -0.16223140507726813
3800000000.0 0.7519175250388148 -0.16117723963742525
3805000000.0 0.751588485339385 -0.16061954010229942
3810000000.0 0.750702396186771 -0.15999829105755461
3815000000.0 0.7500226621253774 -0.1595941237541621
3820000000.0 0.749135008318038 -0.15885160531842923
3825000000.0 0.748414019044373 -0.15814879926887246
3830000000.0 0.7471434836360319 -0.15778365668401026
3835000000.0 0.7452010709380468 -0.15819023125983014
3840000000.0 0.7443684273886186 -0.1581315682564252
3845000000.0 0.7438011214406521 -0.15810419557608982
3850000000.0 0.7431264133053572 -0.15792200000568515
3855000000.0 0.742176283788117 -0.15769326969080347
3860000000.0 0.74166965360511 -0.1575680268386905
3865000000.0 0.741066307800234 -0.15763716807355885
3870000000.0 0.7401110291332119 -0.1576728307442417
3875000000.0 0.7394753430316485 -0.15745279792204742
3880000000.0 0.7386482685606013 -0.15718469525269801
3885000000.0 0.7379117600414024 -0.15723471539139053
3890000000.0 0.7371217743675433 -0.15723288025410592
3895000000.0 0.7361974113036169 -0.15720703700681787
3900000000.0 0.7354542759828289 -0.15710518634648163
3905000000.0 0.7349060801889795 -0.15711277678508054
3910000000.0 0.7338080232646013 -0.1570630292222142
3915000000.0 0.7329875108592933 -0.1571371670053374
3920000000.0 0.7323415522570338 -0.15727493344952267
3925000000.0 0.7313293787736183 -0.15729878932576408
3930000000.0 0.7305180876144514 -0.15736437085332872
3935000000.0 0.730013824811309 -0.15754728431575532
3940000000.0 0.7288133835895968 -0.15769777526792572
3945000000.0 0.7281312187236374 -0.15759879790450113
3950000000.0 0.727416936153908 -0.1577392617308296
3955000000.0 0.7264727651934377 -0.15776095572158855
3960000000.0 0.7255659913839415 -0.1578860123582991
3965000000.0 0.7248049788320496 -0.15811863264730255
3970000000.0 0.723877157797931 -0.1582057215046449
3975000000.0 0.7230293640139535 -0.1583892278499685
3980000000.0 0.7221780315896704 -0.15844153626856775
3985000000.0 0.7215590634850964 -0.15871650308762475
3990000000.0 0.7204819228810769 -0.15890531658068285
3995000000.0 0.7196674150831089 -0.15899940442270163
4000000000.0 0.7188610086491926 -0.15922828720407564
4005000000.0 0.7180374926592651 -0.15951704922376841
4010000000.0 0.7171079881867564 -0.15964648901026202
4015000000.0 0.7164629303791239 -0.15990871150302977
4020000000.0 0.7155478967584752 -0.1601574302714614
4025000000.0 0.7145740365699565 -0.16037361191541813
4030000000.0 0.7137530686021317 -0.16086193873750124
4035000000.0 0.7128140835804051 -0.16110165351931457
4040000000.0 0.711967266112301 -0.16125373404850873
4045000000.0 0.7110962559568332 -0.16166657290204545
4050000000.0 0.7102939476534003 -0.16192935756444218
4055000000.0 0.7093550384906396 -0.16228934304194903
4060000000.0 0.708490501859288 -0.16263290249047618
4065000000.0 0.7076207213313802 -0.1629856855331049
4070000000.0 0.7067927978961414 -0.16336382037083516
4075000000.0 0.7057685240742035 -0.1637117454111997
4080000000.0 0.7048846912211032 -0.16410836375566717
4085000000.0 0.7039085159577217 -0.1644043914504769
4090000000.0 0.7031486329771786 -0.1648297146384772
4095000000.0 0.7021223037760745 -0.1654132336433293
4100000000.0 0.7013889785374787 -0.16576065622942532
4105000000.0 0.7005679262237237 -0.16614491971374662
4110000000.0 0.6996465022268686 -0.16667820841927902
4115000000.0 0.6986192138859484 -0.16698067878123155
4120000000.0 0.6977313636207354 -0.1677485109341024
4125000000.0 0.6967859565390657 -0.1678230581921712
4130000000.0 0.695850306432704 -0.16852872438956465
4135000000.0 0.6950583404368498 -0.16931182893470728
4140000000.0 0.693920033875121 -0.16954432193951618
4145000000.0 0.6931529611240992 -0.17038115356939157
4150000000.0 0.692181580612275 -0.1707213511220057
4155000000.0 0.6914267928657769 -0.17134914131617415
4160000000.0 0.6903603759599738 -0.17207598694654788
4165000000.0 0.6896365040259117 -0.17289778249162596
4170000000.0 0.6886812903746112 -0.17351685033122152
4175000000.0 0.6875778965451635 -0.1739391295514481
4180000000.0 0.6868785586240995 -0.17484451427489045
4185000000.0 0.6858467396825536 -0.17568772156164272
4190000000.0 0.6850103207982357 -0.17621163839076237
4195000000.0 0.6841964908536756 -0.1771025030265292
4200000000.0 0.6834265969168795 -0.1777202466276549
4205000000.0 0.6823696810649678 -0.17867164439890737
4210000000.0 0.68165590443668 -0.1791479503647173
4215000000.0 0.6808286753264243 -0.17993062366214313
4220000000.0 0.6800348694935949 -0.18096696681141042
4225000000.0 0.6793522596728618 -0.18156703212567613
4230000000.0 0.6784002718477244 -0.18248917445806717
4235000000.0 0.6776177263780103 -0.18337231000775406
4240000000.0 0.6768346371524263 -0.18411105479377018
4245000000.0 0.6760186709871252 -0.18533765299601368
4250000000.0 0.6751836570133599 -0.1860011523202414
4255000000.0 0.6742668044956743 -0.18677175228779958
4260000000.0 0.6737575523106748 -0.1878603030401055
4265000000.0 0.6728006077401382 -0.1885885570262483
4270000000.0 0.6721511453098284 -0.18969939732007848
4275000000.0 0.6714157474142556 -0.19061827182036747
4280000000.0 0.6705381413048387 -0.1916527951096183
4285000000.0 0.6698779514585974 -0.19260594363883457
4290000000.0 0.6692243072416894 -0.1935159370650644
4295000000.0 0.6683815929794613 -0.19442724476131443
4300000000.0 0.6676202977666333 -0.19555003795191228
4305000000.0 0.6668423524041832 -0.19644716911548288
4310000000.0 0.6662660849377389 -0.1974587369600773
4315000000.0 0.6656175815745046 -0.1985396607777179
4320000000.0 0.6650359664914653 -0.19962638227449095
4325000000.0 0.6641271046870056 -0.20057356296577145
4330000000.0 0.6635215144219044 -0.20156085947912197
4335000000.0 0.6625897020426509 -0.20267123489754443
4340000000.0 0.6619106597209166 -0.20364543475442579
4345000000.0 0.6612777243782022 -0.20481115865307814
4350000000.0 0.660654058425523 -0.20587584579284204
4355000000.0 0.6599019197773208 -0.20711537928565774
4360000000.0 0.6591837880939749 -0.2083705185776758
4365000000.0 0.65848173525972 -0.20965923058832994
4370000000.0 0.6577106070979903 -0.21091199990469298
4375000000.0 0.6574774918358764 -0.2121611071164159
4380000000.0 0.6565932717037966 -0.21358635889233
4385000000.0 0.6561382435484687 -0.21518883820581275
4390000000.0 0.6554435784702445 -0.2161145561255185
4395000000.0 0.6550300200922615 -0.21732487865925665
4400000000.0 0.6548193516839426 -0.21894481511117345
4405000000.0 0.6542048442500134 -0.2197673790821606
4410000000.0 0.6537424960330631 -0.22128243345168278
4415000000.0 0.6536433855596888 -0.2229249110480176
4420000000.0 0.6531496227841791 -0.22407738801318755
4425000000.0 0.6529064100994879 -0.22541783012324912
4430000000.0 0.6523607545318285 -0.22637982258115893
4435000000.0 0.6520149713761796 -0.2274583877283069
4440000000.0 0.6519125087123827 -0.22874968898059334
4445000000.0 0.6511830494342451 -0.22975165271757153
4450000000.0 0.6511143391920526 -0.2311303396162691
4455000000.0 0.6504639434173786 -0.23224787396188093
4460000000.0 0.6501636515818751 -0.23357797169134928
4465000000.0 0.6498913572430149 -0.23463426479254557
4470000000.0 0.6493072688554714 -0.23632213009986233
4475000000.0 0.6486384009395578 -0.23780920486812554
4480000000.0 0.648091946486401 -0.23922996111049408
4485000000.0 0.647881223524721 -0.240826861062869
4490000000.0 0.6472593276116902 -0.24254212462264002
4495000000.0 0.6471202016898252 -0.24409883191732037
4500000000.0 0.6469018779152406 -0.2458158175699229
4505000000.0 0.6470327900864473 -0.24734823753932117
4510000000.0 0.6469551592955609 -0.24873874746339722
4515000000.0 0.6470021160693098 -0.2504963798209426
4520000000.0 0.6470863287243943 -0.25216369452061305
4525000000.0 0.6473521183148379 -0.2535681094035736
4530000000.0 0.6473042632780315 -0.2549059741176535
4535000000.0 0.6477542180889029 -0.2563865190986717
4540000000.0 0.6475169363772703 -0.25771231038629416
4545000000.0 0.6478459295957795 -0.258831389641271
4550000000.0 0.6478015610592796 -0.26021154428869064
4555000000.0 0.6478906539416475 -0.26155413587619597
4560000000.0 0.648145323187955 -0.26294154993274116
4565000000.0 0.6480113840804504 -0.26423253063403274
4570000000.0 0.648427118521215 -0.2654681921740864
4575000000.0 0.6485704267773356 -0.266712272990117
4580000000.0 0.6487068842024915 -0.2681342216155001
4585000000.0 0.6487110372716715 -0.26949955182743646
4590000000.0 0.6490189466391807 -0.2707593273421006
4595000000.0 0.6490450815258657 -0.272027539456395
4600000000.0 0.649251337105946 -0.2733051069599446
4605000000.0 0.6494232384856289 -0.2746625462927347
4610000000.0 0.6495273908573683 -0.27598812662145217
4615000000.0 0.6497203902876345 -0.27740642460065
4620000000.0 0.6497859047138133 -0.27887875602664264
4625000000.0 0.6502204253620326 -0.28020333049185725
4630000000.0 0.6505152853951142 -0.28151037775964033
4635000000.0 0.6508701967058876 -0.28300937552735733
4640000000.0 0.6511545074471038 -0.2843642314041541
4645000000.0 0.6514710047649568 -0.28583364322271027
4650000000.0 0.6517052687738946 -0.2872384681445385
4655000000.0 0.6524130568808001 -0.28870760103746435
4660000000.0 0.6528744738912472 -0.2899093392215119
4665000000.0 0.6537465543124773 -0.29132230839967704
4670000000.0 0.6538291042906357 -0.2928764785988561
4675000000.0 0.6546505310004141 -0.29415695368448436
4680000000.0 0.6553067689618348 -0.2954298378937476
4685000000.0 0.6558783638056991 -0.29655194743840174
4690000000.0 0.6566705136147284 -0.2976390368495704
4695000000.0 0.6575203772534192 -0.2990978966281008
4700000000.0 0.658328830788387 -0.3000149452153397
4705000000.0 0.6590431449262234 -0.3015167832800587
4710000000.0 0.66008210776982 -0.3024799397112109
4715000000.0 0.660531828894956 -0.303218259062231
4720000000.0 0.6613482628540199 -0.3043755123710497
4725000000.0 0.6622459696573689 -0.3053237664634492
4730000000.0 0.6629840162559827 -0.3062090734028224
4735000000.0 0.6636507300612513 -0.30731044155606735
4740000000.0 0.6644273118401494 -0.30831713871853206
4745000000.0 0.664834221901987 -0.3095337483131931
4750000000.0 0.6656086064413885 -0.310519567181801
4755000000.0 0.6664772903424427 -0.3115184629227171
4760000000.0 0.6672117987327438 -0.312757711133884
4765000000.0 0.6682673907906629 -0.31405002012797967
4770000000.0 0.6691174333528027 -0.3151749245507594
4775000000.0 0.6698017614427266 -0.31655125873833495
4780000000.0 0.6712006482889529 -0.317659357474873
4785000000.0 0.6723002068229992 -0.3184664253707357
4790000000.0 0.6736605621930557 -0.3196842031039452
4795000000.0 0.6748844050062943 -0.3204281070518795
4800000000.0 0.6763749385743164 -0.32139199455023804
4805000000.0 0.6774945271338454 -0.32182295802258326
4810000000.0 0.6786916159725146 -0.32254751048057595
4815000000.0 0.6799905819441798 -0.3230086001637384
4820000000.0 0.6811894983095795 -0.3234624636485173
4825000000.0 0.682329077491544 -0.3239133511125121
4830000000.0 0.6832834600083548 -0.32451260662055453
4835000000.0 0.6844726452935788 -0.32509052368518687
4840000000.0 0.6854388822150114 -0.3255321228461577
4845000000.0 0.6863066506382414 -0.3260179360256283
4850000000.0 0.6873048411742635 -0.3264910621034022
4855000000.0 0.6883972627083634 -0.3268933621573553
4860000000.0 0.6892635369481639 -0.32740506320042595
4865000000.0 0.6904984005527068 -0.3278237217747413
4870000000.0 0.6915694756980468 -0.32849739735229183
4875000000.0 0.6926691511770958 -0.32889516722000817
4880000000.0 0.6937098783886991 -0.32933249012657034
4885000000.0 0.6947510598871046 -0.3297864593452397
4890000000.0 0.6961214418616147 -0.33029414865978624
4895000000.0 0.6973446652855688 -0.3306834812814114
4900000000.0 0.69843119076353 -0.3310304165942962
4905000000.0 0.6993650546468165 -0.33144106711222804
4910000000.0 0.7005840258213828 -0.3316653058651831
4915000000.0 0.701830212337693 -0.33193532861647573
4920000000.0 0.7030974812937623 -0.3322335264127592
4925000000.0 0.7040733635031834 -0.332440945907956
4930000000.0 0.7053795849605043 -0.33268903356539514
4935000000.0 0.7063099109213729 -0.3329917530943351
4940000000.0 0.7076386114285552 -0.3329637478209372
4945000000.0 0.7089458136213473 -0.33335250377940506
4950000000.0 0.7101476477244392 -0.3332958249250776
4955000000.0 0.7114333685065662 -0.33360814507599557
4960000000.0 0.7128287195003965 -0.3335842520301748
4965000000.0 0.7139250026488974 -0.3335413986115782
4970000000.0 0.715158690294711 -0.3337443492329113
4975000000.0 0.716256577272709 -0.3338998724885026
4980000000.0 0.7174450184157619 -0.3338594430018641
4985000000.0 0.7186998720386419 -0.333864395313332
4990000000.0 0.7202915448007488 -0.33398855456450194
4995000000.0 0.7214830661712258 -0.3339293907903535
5000000000.0 0.7226891101834845 -0.3340319435761918
5005000000.0 0.72431707154119 -0.33393676775907877
5010000000.0 0.7253835419333791 -0.33380802727988285
5015000000.0 0.7265618838478326 -0.33368495560266204
5020000000.0 0.7280542747809439 -0.33330374657293593
5025000000.0 0.7294601623347708 -0.33290494510683905
5030000000.0 0.730730205518498 -0.3329408551608706
5035000000.0 0.7323518105059562 -0.33266987239502227
5040000000.0 0.733741172857041 -0.3320133192645872
5045000000.0 0.7349360474903534 -0.3316155371747498
5050000000.0 0.7360669524581391 -0.3313885414400869
5055000000.0 0.7378802082946396 -0.33071481038553746
5060000000.0 0.7385429031399731 -0.33006038875191585
5065000000.0 0.7396091216657887 -0.32941493313464043
5070000000.0 0.7407835130717589 -0.3290405612787415
5075000000.0 0.7419631715302274 -0.32840757821109545
5080000000.0 0.7427092245227384 -0.32775703373505816
5085000000.0 0.7438926938975772 -0.3267524996492309
5090000000.0 0.7449075333241856 -0.3264624998313246
5095000000.0 0.745473961843067 -0.3256393836537381
5100000000.0 0.7464759289621178 -0.32530087103409183
5105000000.0 0.7478164149954791 -0.3245361840327593
5110000000.0 0.7487400560205131 -0.32443675932538085
5115000000.0 0.7496410696957061 -0.3236391888799472
5120000000.0 0.750688152854317 -0.32317290847256785
5125000000.0 0.7519838169319394 -0.3224124211486072
5130000000.0 0.7529769819268016 -0.32179216783903497
5135000000.0 0.7539507024829801 -0.3212909492638059
5140000000.0 0.7550645198662721 -0.3203067818089542
5145000000.0 0.7560084816633657 -0.31964912994890116
5150000000.0 0.7568674165824528 -0.318965463145911
5155000000.0 0.7579102597288705 -0.3180354781847625
5160000000.0 0.7588042600894939 -0.31737976232930315
5165000000.0 0.7596785670328913 -0.31653708009566456
5170000000.0 0.7606306292613113 -0.3157023511352868
5175000000.0 0.7615106611086685 -0.3147357423581263
5180000000.0 0.7623348311305868 -0.31410445958533895
5185000000.0 0.7631520178896085 -0.31339432304128023
5190000000.0 0.7640405006861589 -0.31238122510263977
5195000000.0 0.7648628122172023 -0.3116290330352519
5200000000.0 0.7656440417436791 -0.31071429093237063
5205000000.0 0.7663998059101036 -0.3097476911486912
5210000000.0 0.7671736446908235 -0.3088489429189732
5215000000.0 0.7679014528523949 -0.3080164629507081
5220000000.0 0.768558246499086 -0.3070595383369186
5225000000.0 0.7692552679325192 -0.306158498720909
5230000000.0 0.7700406195103794 -0.30507137325762695
5235000000.0 0.770371752813327 -0.30431815530152995
5240000000.0 0.7709251057150894 -0.30323430113303734
5245000000.0 0.7714316646514351 -0.3024428054393229
5250000000.0 0.7720408840757581 -0.3016498550229297
5255000000.0 0.7726427026406076 -0.30044504245772674
5260000000.0 0.7731570482659972 -0.2996771666629842
5265000000.0 0.7739402914976617 -0.29878822575435726
5270000000.0 0.7743723927390718 -0.2978463614547158
5275000000.0 0.7749151901786121 -0.2971504913107874
5280000000.0 0.7754753711447441 -0.296190760435594
5285000000.0 0.7761917341505218 -0.29515635579687927
5290000000.0 0.7765520455913684 -0.29429763871491343
5295000000.0 0.7776559311193282 -0.29337305447318174
5300000000.0 0.778129585391683 -0.29239890894482695
5305000000.0 0.7784901218406198 -0.29110266086615216
5310000000.0 0.7792368756478965 -0.29014895120283374
5315000000.0 0.7798757446385721 -0.28902489847204044
5320000000.0 0.7804070902422615 -0.28797420711013766
5325000000.0 0.7809589454983232 -0.2866428810365562
5330000000.0 0.7813598248922946 -0.2855583390636681
5335000000.0 0.782203145101775 -0.2846529521256475
5340000000.0 0.7824423104601091 -0.28311998670493177
5345000000.0 0.7828815351542773 -0.28213917735729566
5350000000.0 0.7829630516922165 -0.28081012625055457
5355000000.0 0.783208376445424 -0.27959625071249683
5360000000.0 0.7833756801818712 -0.27825222033198715
5365000000.0 0.7837140543065534 -0.2771687814316162
5370000000.0 0.7839676048165398 -0.2760805863043311
5375000000.0 0.7841995540490924 -0.2750088310407566
5380000000.0 0.7842478517215214 -0.2739265417504265
5385000000.0 0.7846094955741931 -0.27277297442670256
5390000000.0 0.7847973363582856 -0.2717500263989298
5395000000.0 0.7848374471810956 -0.2706629407463871
5400000000.0 0.7850768831034317 -0.26959445884254385
5405000000.0 0.7852604337707902 -0.268517429133345
5410000000.0 0.7853994207113114 -0.26733165799002034
5415000000.0 0.7854691157643514 -0.26632515987073013
5420000000.0 0.7856402724562623 -0.26521090309676737
5425000000.0 0.7856677678780754 -0.26405082676957176
5430000000.0 0.7858936791125006 -0.26287625301421913
5435000000.0 0.7858896830568817 -0.261791652973175
5440000000.0 0.7859976885788986 -0.26057352893527863
5445000000.0 0.7861069634583102 -0.2595715130690931
5450000000.0 0.7860130294484299 -0.2582036258792907
5455000000.0 0.7860611420715823 -0.25696566232532997
5460000000.0 0.7857631953523015 -0.2558876811395927
5465000000.0 0.7857913619262222 -0.254612658813166
5470000000.0 0.7854872148055989 -0.2535859119965022
5475000000.0 0.7853473731611252 -0.25236721569085346
5480000000.0 0.7852016929883441 -0.25155932889499333
5485000000.0 0.7848153794348611 -0.2506082227629114
5490000000.0 0.7845915269175684 -0.24946881648472868
5495000000.0 0.7842718730617543 -0.24868377821432733
5500000000.0 0.7843534775774874 -0.24749676259530284
5505000000.0 0.78372788092756 -0.24641157060887714
5510000000.0 0.783614586254366 -0.24571511646069696
5515000000.0 0.7835718246835075 -0.2447188051711502
5520000000.0 0.7830584863077064 -0.24399825277756337
5525000000.0 0.7831352804248314 -0.24295338319062643
5530000000.0 0.7827788691299593 -0.24172940809941545
5535000000.0 0.7826088168821459 -0.24096034611410747
5540000000.0 0.7820494004702309 -0.24003729180206285
5545000000.0 0.7818234775199022 -0.2393480849572802
5550000000.0 0.7813111552507989 -0.23799613617064536
5555000000.0 0.7810749480258322 -0.23715647175281795
5560000000.0 0.7805826822822782 -0.23623056050545088
5565000000.0 0.7803146505567765 -0.23529783313645491
5570000000.0 0.7795648279940188 -0.23448344556381648
5575000000.0 0.7789651447086995 -0.23368441699071651
5580000000.0 0.7790458024946054 -0.23230293394195559
5585000000.0 0.7784787767496629 -0.2320493576294626
5590000000.0 0.777823412102488 -0.23107600328553674
5595000000.0 0.77740395474124 -0.23024620990498765
5600000000.0 0.776848610006546 -0.22979869880898335
5605000000.0 0.776216598868027 -0.2287904737317936
5610000000.0 0.7761260695886307 -0.22844428507430697
5615000000.0 0.7754258844930247 -0.22738093928943
5620000000.0 0.7752013560130689 -0.2265840206387353
5625000000.0 0.774366379503498 -0.22591678437628773
5630000000.0 0.7746923929928045 -0.2246938949085486
5635000000.0 0.773961861905323 -0.22411952471133534
5640000000.0 0.7730518100209515 -0.22314606156604247
5645000000.0 0.7728137349245461 -0.22215392227513567
5650000000.0 0.7723106060283914 -0.22150376748614753
5655000000.0 0.7718861989930026 -0.2207801481151322
5660000000.0 0.771058864250577 -0.21980240556545205
5665000000.0 0.7704100015955718 -0.2190465725801784
5670000000.0 0.769833818037534 -0.21840359997673459
5675000000.0 0.7690793983213573 -0.21750032091117114
5680000000.0 0.7683658708937232 -0.2167252550249587
5685000000.0 0.7679870008193542 -0.216459481051613
5690000000.0 0.7673241277973064 -0.21553133581017656
5695000000.0 0.7666012689555596 -0.2145980901245862
5700000000.0 0.7660905985097708 -0.21381190293279656
5705000000.0 0.7657493100830929 -0.21303877025705417
5710000000.0 0.7646563463120845 -0.21241189235683722
5715000000.0 0.7640008057434874 -0.211546779293876
5720000000.0 0.763236680686938 -0.2109280842721047
5725000000.0 0.7624371886275932 -0.21035964526033138
5730000000.0 0.7617523926488006 -0.2094501246950277
5735000000.0 0.7608875733063174 -0.20864154240808572
5740000000.0 0.7602469940397545 -0.20806463495475744
5745000000.0 0.7594170781545286 -0.20737320590973346
5750000000.0 0.7587210777363395 -0.20656118796285539
5755000000.0 0.7578327466577677 -0.20581081238394508
5760000000.0 0.7571346984319547 -0.20508847554569049
5765000000.0 0.7562163033180567 -0.20439481712173896
5770000000.0 0.7553218609013678 -0.2036757354084636
5775000000.0 0.7543219182833611 -0.20303473811557737
5780000000.0 0.7534219072599508 -0.20233447076962366
5785000000.0 0.7523660475186961 -0.2016592305021161
5790000000.0 0.7515478649166389 -0.20099364636336028
5795000000.0 0.7504334869545277 -0.20028767130116734
5800000000.0 0.749183116549958 -0.1997877515399961
5805000000.0 0.7482268918037831 -0.1990930919809785
5810000000.0 0.747165671630392 -0.19848006972346524
5815000000.0 0.7461044711138285 -0.1979554530356398
5820000000.0 0.7449270128161063 -0.19725577159651908
5825000000.0 0.7437675429726313 -0.1967478236917436
5830000000.0 0.7428250376184837 -0.19614670523197925
5835000000.0 0.7412821600925176 -0.1958252073683833
5840000000.0 0.740059598046943 -0.19548445298002087
5845000000.0 0.739091690341547 -0.19490653980668501
5850000000.0 0.7375857003817311 -0.19447259644804665
5855000000.0 0.7363080452735352 -0.19398806370161709
5860000000.0 0.7351379797924477 -0.1935558403386953
5865000000.0 0.7337705586682113 -0.19333634915567746
5870000000.0 0.7326575970299558 -0.19280661422817155
5875000000.0 0.7316942593038392 -0.1925743529246274
5880000000.0 0.7300822869323792 -0.1922735923292474
5885000000.0 0.7290214079571478 -0.19175028376700698
5890000000.0 0.7276490946265123 -0.19150512979766596
5895000000.0 0.726300589051992 -0.19151133785181196
5900000000.0 0.7248816722909248 -0.1910543329954501
5905000000.0 0.7241154060253334 -0.190734723218549
5910000000.0 0.7227170121821351 -0.19042579837279544
5915000000.0 0.7213793624463989 -0.19017235180528122
5920000000.0 0.7200136545878127 -0.19008492735857618
5925000000.0 0.7188484275264473 -0.18989076165779947
5930000000.0 0.7173572587528241 -0.18965239747552112
5935000000.0 0.7160738423157527 -0.18953958248369052
5940000000.0 0.7144931830382305 -0.18927687499019324
5945000000.0 0.7134582177684449 -0.1893118181287241
5950000000.0 0.7114608546340511 -0.18911114467886378
5955000000.0 0.7100850216241141 -0.18925653612677282
5960000000.0 0.7086022058071846 -0.18905550971276278
5965000000.0 0.707270028804798 -0.18905291705470856
5970000000.0 0.7059616496053458 -0.18928540793300133
5975000000.0 0.7043740645059459 -0.1892677918520363
5980000000.0 0.703136900297309 -0.1895617816983423
5985000000.0 0.7018357526024728 -0.18980770364592128
5990000000.0 0.7005847856940735 -0.18979879004162767
5995000000.0 0.699323031775006 -0.1898965376935853
6000000000.0 0.6977767015495739 -0.19002819059565035
