! Created with skrf 1.12.0 (http://scikit-rf.org).
# Hz S RI R 50.0 
!freq ReS11 ImS11
!
100000000.0 0.9951650132174705 -0.029285376373615994
105000000.0 0.9946050252240929 -0.03057282148775971
110000000.0 0.9940738527183033 -0.03200976932288515
115000000.0 0.9936896041576069 -0.03334587161402237
120000000.0 0.9929650886402333 -0.03459291914892326
125000000.0 0.9924751154748055 -0.03594948204410935
130000000.0 0.9920105399829292 -0.037395957031471166
135000000.0 0.9914021958470264 -0.03856091039706475
140000000.0 0.9907417118253441 -0.03972012748907738
145000000.0 0.9902216912543268 -0.04117534473099351
150000000.0 0.989548630632692 -0.042242922263727514
155000000.0 0.9888816219144135 -0.04348713778422698
160000000.0 0.988270530023192 -0.044648384374816996
165000000.0 0.9877126142310731 -0.04593400936687131
170000000.0 0.9871098623071595 -0.04690181227180731
175000000.0 0.9864644175817754 -0.0481920381796994
180000000.0 0.9856584746793449 -0.04910593251595261
185000000.0 0.9849261757207487 -0.050274421724686
190000000.0 0.9842785971963484 -0.05146688212327102
195000000.0 0.9835875674880837 -0.05254548192326427
200000000.0 0.9827798677740157 -0.05352279805067788
205000000.0 0.981991427471749 -0.05450062934565471
210000000.0 0.9812945442662631 -0.05565140212024662
215000000.0 0.980469960650979 -0.05654434654596459
220000000.0 0.97965935560716 -0.057566699789945115
225000000.0 0.9788212518470187 -0.058426047867201646
230000000.0 0.9780365049226284 -0.05946005812939206
235000000.0 0.9774899396669723 -0.06042604251420335
240000000.0 0.9765399109210634 -0.06127058942581485
245000000.0 0.9758739665034025 -0.06207526908754908
250000000.0 0.9751312836406966 -0.06301326013756489
255000000.0 0.97429695185345 -0.06378877062349646
260000000.0 0.9735752749990875 -0.06466713267858765
265000000.0 0.9727328853011549 -0.06545027911244504
270000000.0 0.9718493647308085 -0.06624396243427143
275000000.0 0.9710496314440245 -0.06703790143357698
280000000.0 0.9703666024651199 -0.06782662816264987
285000000.0 0.9695609434342805 -0.06851449711608965
290000000.0 0.9686355631959845 -0.06927855046503145
295000000.0 0.9679722266381706 -0.06988697781880336
300000000.0 0.9671998580909017 -0.0707409587382032
305000000.0 0.9664788096503687 -0.07132261524066784
310000000.0 0.965616782126939 -0.0720788444024782
315000000.0 0.9648697085515927 -0.0725752452436983
320000000.0 0.9640894314719131 -0.07323134644846753
325000000.0 0.9632339337078987 -0.07388652084961742
330000000.0 0.9625202703946565 -0.07439161436994209
335000000.0 0.9616178769577493 -0.07505300462068046
340000000.0 0.9609664063442318 -0.0756627356255423
345000000.0 0.9601691672600918 -0.07609996284630936
350000000.0 0.9595650511003139 -0.0766803881924712
355000000.0 0.9586938863985008 -0.07716404850920601
360000000.0 0.9579352234091042 -0.07777420629156456
365000000.0 0.9571509432545396 -0.07814474874952758
370000000.0 0.956415353354104 -0.07880035772645903
375000000.0 0.9556483072190319 -0.07923781542827703
380000000.0 0.9550510894446 -0.07962931897438055
385000000.0 0.9543105439637891 -0.07996554592546036
390000000.0 0.9536758087174524 -0.08055078255595037
395000000.0 0.9528937234301259 -0.08088360732355626
400000000.0 0.952136233300913 -0.08136374386954466
405000000.0 0.9514189807690183 -0.08181971353006758
410000000.0 0.9506960045337445 -0.08218282053576428
415000000.0 0.9500786835851949 -0.08260331345587164
420000000.0 0.9494223464767548 -0.08289155176757748
425000000.0 0.9487093858313417 -0.08325358053880595
430000000.0 0.947984552148752 -0.08366104614248104
435000000.0 0.9475058957256292 -0.08389143573630352
440000000.0 0.9467794442193085 -0.08429100194142171
445000000.0 0.9460831996511955 -0.08461311551957172
450000000.0 0.9454560148740863 -0.08497999988017674
455000000.0 0.944856813048786 -0.085292146889894
460000000.0 0.9442379112693975 -0.08550652217982702
465000000.0 0.943645048773683 -0.08580541664377715
470000000.0 0.9430292255732292 -0.08618179192009824
475000000.0 0.9425367600682646 -0.08643726673365859
480000000.0 0.941832665423189 -0.08666870112624489
485000000.0 0.9410869454802095 -0.08686944977776145
490000000.0 0.9405707708135884 -0.08718584440306856
495000000.0 0.940001665320657 -0.08738281773888738
500000000.0 0.9394286326873033 -0.08753573565625188
505000000.0 0.9388794309659405 -0.0878253507848733
510000000.0 0.938405424404075 -0.08792095210445948
515000000.0 0.9376817450990356 -0.08823640478487312
520000000.0 0.9371957011716816 -0.08842683530840514
525000000.0 0.9367172047062561 -0.08878045012016252
530000000.0 0.936218891382454 -0.0888483545313742
535000000.0 0.9356076624614632 -0.08895339534480261
540000000.0 0.9351510979016029 -0.08920045012357347
545000000.0 0.9345642140581915 -0.08940841434105909
550000000.0 0.9341144033521918 -0.0896152247665541
555000000.0 0.9336283154625584 -0.08974522623270297
560000000.0 0.9330650864181513 -0.08990374673753787
565000000.0 0.9326861971966575 -0.0900798479700589
570000000.0 0.9321163629367764 -0.09020800561033115
575000000.0 0.931704022012157 -0.0903261357839756
580000000.0 0.9311743099142119 -0.09058073621425229
585000000.0 0.9307699981961997 -0.09065699406680963
590000000.0 0.9303097107149338 -0.09071808911019524
595000000.0 0.9298052958452161 -0.09088699997430325
600000000.0 0.9293654524570841 -0.09093928169965618
605000000.0 0.9289447728854224 -0.09114875393283482
610000000.0 0.9284808195082472 -0.09139152327081007
615000000.0 0.9280281882751926 -0.09133323526322383
620000000.0 0.9277572930002621 -0.09144934313615359
625000000.0 0.9272634978324006 -0.09155776371083514
630000000.0 0.9268762022525424 -0.09158268869159832
635000000.0 0.9265330243248392 -0.09176123068194933
640000000.0 0.926013463086637 -0.09179751204210207
645000000.0 0.9255249724970035 -0.09202707241187912
650000000.0 0.925210364731116 -0.09204280648070008
655000000.0 0.9248663985641816 -0.09205824458495472
660000000.0 0.9244718922081051 -0.09219708276065827
665000000.0 0.9241617773954721 -0.09228584375391104
670000000.0 0.9237624182270838 -0.09228672820786588
675000000.0 0.923394535479605 -0.0923907432630612
680000000.0 0.9229058570191936 -0.09244974733673642
685000000.0 0.9225510857953784 -0.09250755477861589
690000000.0 0.9222004530821587 -0.09261941417552629
695000000.0 0.9218815884108637 -0.09262230541436538
700000000.0 0.9215766775530683 -0.09264644183427272
705000000.0 0.921193061983767 -0.0927592464157495
710000000.0 0.9209854033174749 -0.09284970833999569
715000000.0 0.9205432575101972 -0.092841544855801
720000000.0 0.9202685488116505 -0.09298636564719202
725000000.0 0.9198577464189923 -0.09297335284323299
730000000.0 0.9195751909615156 -0.09289126967144012
735000000.0 0.9192563768170247 -0.09305862179266122
740000000.0 0.9188274670349766 -0.09303883871991321
745000000.0 0.918611960028444 -0.09308018618223507
750000000.0 0.9182970007312224 -0.09327884811238943
755000000.0 0.9179638214155187 -0.09321510390900961
760000000.0 0.9177193419068664 -0.09325583990055278
765000000.0 0.9174199954422096 -0.09343026055217485
770000000.0 0.9171066249941 -0.09339556645224657
775000000.0 0.9169047878656202 -0.09348221282449938
780000000.0 0.9165677170664306 -0.0934322498928603
785000000.0 0.9162771452683678 -0.09367175766218581
790000000.0 0.915983122887252 -0.09351221976323998
795000000.0 0.9156508873919559 -0.09358552906782086
800000000.0 0.9154205669592504 -0.09358615337739669
805000000.0 0.9151444039896643 -0.09366796524546327
810000000.0 0.9148875598397213 -0.09359982931409831
815000000.0 0.914627844605391 -0.0936361392497097
820000000.0 0.9143897892640849 -0.09373580417472052
825000000.0 0.9140530195835133 -0.09373389620583412
830000000.0 0.9137615324171932 -0.09383358456089158
835000000.0 0.9136382422750475 -0.09370288423621345
840000000.0 0.9134129950970025 -0.09386886843600857
845000000.0 0.9132388282182544 -0.0939058910708237
850000000.0 0.9128023679387643 -0.09384416160040515
855000000.0 0.9126685348749035 -0.09397855612628914
860000000.0 0.9124083108620248 -0.09397772568385436
865000000.0 0.9121582099953565 -0.09403106778655156
870000000.0 0.9119554083890021 -0.09408746687382884
875000000.0 0.9117539831169879 -0.09418112381351504
880000000.0 0.9115884251070042 -0.09410176273013324
885000000.0 0.9112524389136047 -0.09420221162733675
890000000.0 0.9109984021659004 -0.09415158176392607
895000000.0 0.9107371748675301 -0.09417929172592825
900000000.0 0.9104934833357164 -0.09418736393601664
905000000.0 0.9103959151648225 -0.09422447927473147
910000000.0 0.9100580480749435 -0.0942895457114162
915000000.0 0.9098969989318579 -0.09437000180541921
920000000.0 0.9095601668599476 -0.09442250001223298
925000000.0 0.9094803301355757 -0.0943745138458075
930000000.0 0.9091805548090443 -0.09450861020178182
935000000.0 0.9090520765415466 -0.09451660369091462
940000000.0 0.9088188924240594 -0.09455783095258083
945000000.0 0.9084078673817888 -0.09455842222798867
950000000.0 0.9082956384273706 -0.09447951401264684
955000000.0 0.9081991074989485 -0.0945794012355709
960000000.0 0.9078918881178089 -0.09458671032060287
965000000.0 0.9075984286500142 -0.09450742613121757
970000000.0 0.9074554740959927 -0.09453665999143504
975000000.0 0.9071762004028397 -0.0946549963121808
980000000.0 0.9071045412861563 -0.09469016998571012
985000000.0 0.9070441664080683 -0.0947082996135307
990000000.0 0.906725396041397 -0.09469930062157693
995000000.0 0.9065436769155699 -0.09469196493595244
1000000000.0 0.9063330045696236 -0.09483375929893173
1005000000.0 0.9061916321840296 -0.09484908883539428
1010000000.0 0.9058947053878799 -0.09481340707268637
1015000000.0 0.9057114250429631 -0.09491189624046735
1020000000.0 0.9054943082314779 -0.09484849798047833
1025000000.0 0.905271348088163 -0.09481083963645244
1030000000.0 0.9051595911018755 -0.09495381909155534
1035000000.0 0.9048750671026363 -0.09485296182186252
1040000000.0 0.9048359558102994 -0.09501248325240429
1045000000.0 0.9044898182904001 -0.09498781444455906
1050000000.0 0.9043841009358043 -0.09495898547037918
1055000000.0 0.9041804214780215 -0.09495949918816633
1060000000.0 0.9039502008543637 -0.09506769488783628
1065000000.0 0.9037853105556334 -0.09498213769202146
1070000000.0 0.9035345835998874 -0.09503983942216528
1075000000.0 0.9035027314280261 -0.09513308451301597
1080000000.0 0.9032529671949547 -0.09509941279311011
1085000000.0 0.9030380917977818 -0.09513495411205683
1090000000.0 0.902757052422275 -0.09514757885501916
1095000000.0 0.9025590411043478 -0.09520021059068161
1100000000.0 0.9024478215886449 -0.0952190046903677
1105000000.0 0.9023385077150996 -0.09513624108497257
1110000000.0 0.90219427724572 -0.09505728427790695
1115000000.0 0.9018650056953929 -0.095210589696304
1120000000.0 0.9017472010995492 -0.09520317491508769
1125000000.0 0.9015129134282924 -0.0952509200154005
1130000000.0 0.901338392922966 -0.09515951179067143
1135000000.0 0.9011166208660878 -0.09527552720346417
1140000000.0 0.9009802983345934 -0.09522085009398194
1145000000.0 0.9007843168524023 -0.09518980363021243
1150000000.0 0.9007306053784683 -0.09510068184281972
1155000000.0 0.9004141217141793 -0.0952004416465781
1160000000.0 0.9002906897965439 -0.0952172401492483
1165000000.0 0.9000462570695614 -0.09525085113559752
1170000000.0 0.8998220370290266 -0.0950875998560818
1175000000.0 0.8996255900430553 -0.09518455282783042
1180000000.0 0.8994218593548569 -0.09518070041036229
1185000000.0 0.8992605339168144 -0.09517485227590392
1190000000.0 0.8990866447035103 -0.09524254284145156
1195000000.0 0.8988986533889864 -0.09529802067531307
1200000000.0 0.8987028697336832 -0.09527367728868653
1205000000.0 0.8984802360877951 -0.09516954781725148
1210000000.0 0.8983402537549873 -0.09528254752339592
1215000000.0 0.8982013233296609 -0.09526215822787988
1220000000.0 0.8978097722647678 -0.09522797953612216
1225000000.0 0.8976479588378302 -0.09525497874077299
1230000000.0 0.8975657917019205 -0.09517077262675666
1235000000.0 0.8972901760255634 -0.09511344996545049
1240000000.0 0.896995038136844 -0.09512671751608019
1245000000.0 0.8967716357920226 -0.09520524888636599
1250000000.0 0.8967687132115474 -0.09518012754416506
1255000000.0 0.8964552552709997 -0.09517552959221495
1260000000.0 0.8962233650541703 -0.09510308845098303
1265000000.0 0.8960331688648462 -0.09499265586424942
1270000000.0 0.8960643078602952 -0.09500089419768674
1275000000.0 0.8958075528622457 -0.09502705852700741
1280000000.0 0.8955544836967593 -0.09507090662503787
1285000000.0 0.8952451970905472 -0.09495421662679296
1290000000.0 0.8950895597548545 -0.09486815278401654
1295000000.0 0.8948453109852684 -0.09498988665063968
1300000000.0 0.8946042515417818 -0.09500377261997807
1305000000.0 0.8944123759082285 -0.09483321193204546
1310000000.0 0.8941137086705245 -0.09491629627071883
1315000000.0 0.8939547718465617 -0.09483017892568811
1320000000.0 0.8937546318498948 -0.09485211815639176
1325000000.0 0.8936034304188145 -0.09475553876928437
1330000000.0 0.8932454924358089 -0.09485947205878047
1335000000.0 0.89308963112786 -0.09500622141364334
1340000000.0 0.8928959886002459 -0.0947944274966073
1345000000.0 0.8925373391105911 -0.09476826675775588
1350000000.0 0.892362177920164 -0.0947744395193293
1355000000.0 0.8922009276611271 -0.0947494936950587
1360000000.0 0.891962574067301 -0.09477918134638477
1365000000.0 0.8915396784371133 -0.09478384559128618
1370000000.0 0.8915878780714208 -0.09483335786396627
1375000000.0 0.8912882343187283 -0.09477772372514652
1380000000.0 0.8910188306790708 -0.09486153438192947
1385000000.0 0.890741781851047 -0.09484735418153943
1390000000.0 0.8905174903245877 -0.09478441528440122
1395000000.0 0.8901826180678373 -0.09475019699813432
1400000000.0 0.8901200539467626 -0.0948636757825953
1405000000.0 0.8898263613603373 -0.09471800359490783
1410000000.0 0.8895473661025181 -0.09470381179790038
1415000000.0 0.889300227883705 -0.09473497055910544
1420000000.0 0.8889648937778559 -0.094768434695665
1425000000.0 0.8888122589423454 -0.0947535186884905
1430000000.0 0.8884698695538839 -0.09466104723383972
1435000000.0 0.8881480937661754 -0.09473031873906963
1440000000.0 0.8879101993117219 -0.09465087303544775
1445000000.0 0.8876665481255692 -0.09483675825367495
1450000000.0 0.8874781899459521 -0.09476467002091142
1455000000.0 0.8871356066396552 -0.09466433246132087
1460000000.0 0.8870158262988826 -0.09468820890932826
1465000000.0 0.8866107842729295 -0.09467476768793208
1470000000.0 0.8864773938599726 -0.09465788447871132
1475000000.0 0.8861769280906004 -0.09463657340595666
1480000000.0 0.8859977758127923 -0.09476511185174033
1485000000.0 0.8857363339513582 -0.094724266483966
1490000000.0 0.8854385706535693 -0.09464841311706912
1495000000.0 0.8852201863238688 -0.09473097133650527
1500000000.0 0.8848949508693854 -0.09470499506894395
1505000000.0 0.8845950300667755 -0.09482647691503779
1510000000.0 0.8843194041546746 -0.09476578691905062
1515000000.0 0.8842879824423442 -0.09479755671006762
1520000000.0 0.8837953368683144 -0.09484794543683032
1525000000.0 0.8835683068093197 -0.09471294898326732
1530000000.0 0.883373643115117 -0.0948150799386225
1535000000.0 0.8831202343225676 -0.09484450105671711
1540000000.0 0.8828030105480995 -0.09489201139238054
1545000000.0 0.8826028588131695 -0.09477891272378781
1550000000.0 0.8823555543950061 -0.09498048956700177
1555000000.0 0.8820972909406313 -0.09481489860877086
1560000000.0 0.8819176786452163 -0.09483521942268856
1565000000.0 0.8816791692814272 -0.09480145655926378
1570000000.0 0.8813975559549744 -0.09491045332383335
1575000000.0 0.8810723204518084 -0.09493166860547014
1580000000.0 0.8808371400822608 -0.09485148556804159
1585000000.0 0.880431826751965 -0.09495319849569396
1590000000.0 0.8801897031311842 -0.09489510762972382
1595000000.0 0.879952792813314 -0.09495338144137659
1600000000.0 0.8795813244906288 -0.09500361032198366
1605000000.0 0.8793480182547614 -0.09520188880563393
1610000000.0 0.8791429657975829 -0.09507058923870798
1615000000.0 0.8788849670227404 -0.0951129427537219
1620000000.0 0.8785686479209602 -0.09520244172024207
1625000000.0 0.8785283643205605 -0.09507583655434762
1630000000.0 0.8780472198983987 -0.09506981554964568
1635000000.0 0.8776830771226157 -0.09507248073434485
1640000000.0 0.877559787899677 -0.09526576598951907
1645000000.0 0.8770726900220408 -0.09532101148267104
1650000000.0 0.8768515245876106 -0.09523905334157898
1655000000.0 0.8767946004414131 -0.09536423096954663
1660000000.0 0.8763696608823026 -0.0953539139892679
1665000000.0 0.876135806540729 -0.09552158351778271
1670000000.0 0.8757659341907424 -0.09548468198572224
1675000000.0 0.8756469195746759 -0.09564571041162385
1680000000.0 0.8751571017007863 -0.0955992551070752
1685000000.0 0.8749833600180115 -0.09561693170847194
1690000000.0 0.8748203889794158 -0.09573184912185106
1695000000.0 0.8744161512914334 -0.09574459967204481
1700000000.0 0.8742710466430943 -0.09569870904695549
1705000000.0 0.8739842851656343 -0.09578040674311043
1710000000.0 0.8735321349716915 -0.09589954049763953
1715000000.0 0.8733225597436632 -0.09577339138082255
1720000000.0 0.87319570923734 -0.09594494304767125
1725000000.0 0.8729214318641118 -0.09600331218426533
1730000000.0 0.8726966867992912 -0.09594674901735704
1735000000.0 0.8723912046403234 -0.09613609461678446
1740000000.0 0.8721238099615819 -0.09606125646859733
1745000000.0 0.8718183761743147 -0.09609855726257549
1750000000.0 0.8716465410296674 -0.09625163639713329
1755000000.0 0.8712131442552492 -0.09626189932922496
1760000000.0 0.8709002533640324 -0.09620668350987244
1765000000.0 0.8706368794091387 -0.09635745986194681
1770000000.0 0.8703372253762534 -0.09657198035646111
1775000000.0 0.8700194357290323 -0.0965770247234399
1780000000.0 0.8697407874289624 -0.096725835493591
1785000000.0 0.8695078947669466 -0.0966763682471999
1790000000.0 0.8692831403437561 -0.09673222366284513
1795000000.0 0.869086496463606 -0.0969305786615061
1800000000.0 0.8687596210491327 -0.09690023985786578
1805000000.0 0.8685466287131771 -0.09677517009523755
1810000000.0 0.8682720384676111 -0.0969919533627404
1815000000.0 0.867962413661632 -0.09711040114528834
1820000000.0 0.8678137281702101 -0.09733572312344892
1825000000.0 0.867578727532039 -0.09747812133745541
1830000000.0 0.8673325697636348 -0.09749255501893778
1835000000.0 0.8670108252071211 -0.09751070465774853
1840000000.0 0.8667485648040353 -0.09770559738390039
1845000000.0 0.8663303814665457 -0.09753894711680017
1850000000.0 0.8661768159213937 -0.09795490480620361
1855000000.0 0.8659573240423115 -0.09793000236866996
1860000000.0 0.8658381755883181 -0.09811805363044476
1865000000.0 0.8654420710104841 -0.09807323578146508
1870000000.0 0.8651603703026655 -0.09821464804084792
1875000000.0 0.8648744328692056 -0.09823515376184441
1880000000.0 0.8647432899744936 -0.09837475911566776
1885000000.0 0.8645136563920187 -0.09865801001805832
1890000000.0 0.8641815562033419 -0.09850312712632273
1895000000.0 0.8641467479731763 -0.09883423751821734
1900000000.0 0.8637237204026784 -0.09878073642111483
1905000000.0 0.8634285370169499 -0.0989233805617454
1910000000.0 0.8630296514943694 -0.09910997619545812
1915000000.0 0.8629415114262818 -0.09940258345966246
1920000000.0 0.8625106088564255 -0.0993320769131141
1925000000.0 0.8623844074989113 -0.09935829601709982
1930000000.0 0.8622436827642792 -0.09949320292951233
1935000000.0 0.8619651366606965 -0.09975610136082189
1940000000.0 0.8618284823496719 -0.09982860960503416
1945000000.0 0.8613928530125811 -0.10007971454458962
1950000000.0 0.861278381510497 -0.10007341169317581
1955000000.0 0.860988442806094 -0.10007877729402441
1960000000.0 0.860626879922811 -0.10042023910134731
1965000000.0 0.8605735836433605 -0.10055024805380748
1970000000.0 0.8602788887265129 -0.10069380226487604
1975000000.0 0.8600641231192245 -0.10102363647506599
1980000000.0 0.8598272293872911 -0.10113789930478448
1985000000.0 0.8596612260910652 -0.10133617495347765
1990000000.0 0.8593044810281106 -0.10138314317018728
1995000000.0 0.8591600942926706 -0.10164459187611448
2000000000.0 0.858872103950774 -0.10184837145103207
2005000000.0 0.858723731241502 -0.10208829880867948
2010000000.0 0.8583715373580566 -0.10225828699027412
2015000000.0 0.8582792662142413 -0.10248104625378086
2020000000.0 0.858013805391125 -0.10265709823395937
2025000000.0 0.8578381107258141 -0.10284908492505118
2030000000.0 0.8575707768769932 -0.10318861665968816
2035000000.0 0.8573518419967333 -0.1032513667189679
2040000000.0 0.8571883019521745 -0.10344553237143156
2045000000.0 0.8570188173976389 -0.10365614977601277
2050000000.0 0.8567409592633626 -0.10391307837084059
2055000000.0 0.856596534285549 -0.10410040465142113
2060000000.0 0.8563934287153118 -0.10426146555923081
2065000000.0 0.856266200193786 -0.10462635961918328
2070000000.0 0.8559219136822287 -0.10486862486218612
2075000000.0 0.8557518955295684 -0.10509258323789947
2080000000.0 0.855512994198202 -0.10531480352550777
2085000000.0 0.8552924550947304 -0.10563470283721135
2090000000.0 0.8551374607890688 -0.10576088151164509
2095000000.0 0.8549491123378722 -0.10606544610427601
2100000000.0 0.8548449005233983 -0.10640639420289558
2105000000.0 0.8548236286924066 -0.10666340576043641
2110000000.0 0.854564429370791 -0.10694584528574848
2115000000.0 0.8543120720899228 -0.10718204680318433
2120000000.0 0.8542693240216775 -0.10733717358037552
2125000000.0 0.8540937308597094 -0.10753161431510753
2130000000.0 0.8539269883233038 -0.10782163642463481
2135000000.0 0.8537989421852077 -0.10812848954097605
2140000000.0 0.8536618135650939 -0.10843065028851998
2145000000.0 0.8535135912205459 -0.10873706807205283
2150000000.0 0.853396510331246 -0.10908165563144569
2155000000.0 0.8533531008968803 -0.1093918960095327
2160000000.0 0.8531362804626933 -0.10971495651662468
2165000000.0 0.8530040402954651 -0.11000475472257061
2170000000.0 0.8528707530568476 -0.1101640301562302
2175000000.0 0.8528570746205151 -0.11062400567915966
2180000000.0 0.8526510257071943 -0.11099071454086501
2185000000.0 0.852508770511007 -0.11134324420733374
2190000000.0 0.8524637303569949 -0.112003980526444
2195000000.0 0.8522568552428466 -0.11193001060861282
2200000000.0 0.85219056892999 -0.11256382841938833
2205000000.0 0.8521172484498959 -0.11272811840833502
2210000000.0 0.8519337190920319 -0.1129913141513981
2215000000.0 0.8519818332172169 -0.11349068033718017
2220000000.0 0.8517300133713541 -0.11374543685057219
2225000000.0 0.8517134958514196 -0.11415268059199281
2230000000.0 0.8518003334697689 -0.1147118798552923
2235000000.0 0.8514958008876947 -0.11487197392242846
2240000000.0 0.8513491077798785 -0.11523967919163923
2245000000.0 0.8513925200932558 -0.11566180438112948
2250000000.0 0.8512575424263015 -0.11603470599078587
2255000000.0 0.8513731715192824 -0.11635579196294754
2260000000.0 0.851232636077674 -0.11687815896060266
2265000000.0 0.8512175726612529 -0.1171670916458569
2270000000.0 0.8510945389185507 -0.11771531465077967
2275000000.0 0.8511456590878331 -0.11791249723420004
2280000000.0 0.8512014565907421 -0.11848718689239394
2285000000.0 0.8511130489209656 -0.11875574574822298
2290000000.0 0.8512658976422419 -0.11911447923319637
2295000000.0 0.8510344159818667 -0.11944899148219719
2300000000.0 0.8510693464449799 -0.11988634476528318
2305000000.0 0.8510119975004115 -0.12016657500791306
2310000000.0 0.8509539362254728 -0.12048939949872708
2315000000.0 0.8509229492816068 -0.12097849722883267
2320000000.0 0.8509025872637512 -0.12126742427810183
2325000000.0 0.8509057557859896 -0.1217763863160905
2330000000.0 0.8508986755795755 -0.12218276765398632
2335000000.0 0.850916003624418 -0.12258747995845873
2340000000.0 0.8508450092733559 -0.12304639034964791
2345000000.0 0.8508580666488996 -0.12345834591028054
2350000000.0 0.8508273354246311 -0.1238255390947811
2355000000.0 0.8508369504275443 -0.12422228902674425
2360000000.0 0.8508279514265377 -0.12465511210749176
2365000000.0 0.8508368132792298 -0.12507272344080553
2370000000.0 0.8508391958706386 -0.12535413650259997
2375000000.0 0.8508696135659529 -0.1259672709253678
2380000000.0 0.8509589651615325 -0.12634296487922786
2385000000.0 0.8510906129067961 -0.12673651395549618
2390000000.0 0.8510280105765753 -0.12727279032068364
2395000000.0 0.8511354202947234 -0.1278290578514543
2400000000.0 0.8510986789313242 -0.12814557881168093
2405000000.0 0.8512824151756573 -0.12862460028315645
2410000000.0 0.8514553621602552 -0.12903591259982686
2415000000.0 0.8514622045488713 -0.12952363338052603
2420000000.0 0.8515156703147712 -0.12973410806234104
2425000000.0 0.8516789854703233 -0.13030530366365056
2430000000.0 0.8516080086693549 -0.13067872531778757
2435000000.0 0.851745024548741 -0.1309254151543027
2440000000.0 0.8518954866302253 -0.13155869164512224
2445000000.0 0.851950916806763 -0.13189475498717515
2450000000.0 0.8523356395865928 -0.13247639256595337
2455000000.0 0.8521203385348731 -0.13281928411278432
2460000000.0 0.8524492956233215 -0.13322772248538
2465000000.0 0.8525773671173301 -0.13372522774011028
2470000000.0 0.852825040679829 -0.13412836025881802
2475000000.0 0.8529307027394167 -0.13449032332342642
2480000000.0 0.8529161442092222 -0.13497333431646982
2485000000.0 0.8530535211651177 -0.1352578024714815
2490000000.0 0.8533246585882681 -0.13570734371294288
2495000000.0 0.8534345674144508 -0.13620836470161277
2500000000.0 0.8538144660077186 -0.13667187494054597
2505000000.0 0.8538009342335606 -0.1368660098526723
2510000000.0 0.8540981687043856 -0.13733361457837862
2515000000.0 0.8542290401419146 -0.13770047588862
2520000000.0 0.8544521974397339 -0.13811885404564858
2525000000.0 0.8545638916188165 -0.1384472386287769
2530000000.0 0.8549139229554267 -0.1388907843124553
2535000000.0 0.8550734448619429 -0.13941529243486198
2540000000.0 0.8551889745468336 -0.13962806793642493
2545000000.0 0.8553628489200273 -0.1400449779293346
2550000000.0 0.8554767092239293 -0.1403569171928806
2555000000.0 0.8558029995388579 -0.14070660187249118
2560000000.0 0.8558277620284692 -0.14115258011136594
2565000000.0 0.8559013569121781 -0.14147891141804117
2570000000.0 0.8560701373797356 -0.1419337348230071
2575000000.0 0.8563003155561298 -0.14230924466457825
2580000000.0 0.8564001742768028 -0.14274647315599118
2585000000.0 0.8565777765457844 -0.14303619802629858
2590000000.0 0.8568668851009646 -0.14341615132466587
2595000000.0 0.8571212070302202 -0.14389036722512671
2600000000.0 0.8573429605457039 -0.14417355762260817
2605000000.0 0.8575835551770326 -0.14469759735413762
2610000000.0 0.8576849041458249 -0.14501034617346384
2615000000.0 0.8580787812893779 -0.14535541007202976
2620000000.0 0.8582286560957376 -0.1458336239132886
2625000000.0 0.8584846094185447 -0.1461652889755595
2630000000.0 0.8586063038546596 -0.14664411918465975
2635000000.0 0.8590100303910089 -0.14693074322813912
2640000000.0 0.8591448866364343 -0.14726588329811477
2645000000.0 0.8593703864671006 -0.14765976307003406
2650000000.0 0.8597691682373614 -0.14788119506604697
2655000000.0 0.8599887257974931 -0.14832099258681847
2660000000.0 0.8603117262509249 -0.14850818586163195
2665000000.0 0.8604492661035908 -0.14883773228285693
2670000000.0 0.8607593250609311 -0.1490694629857515
2675000000.0 0.8609835913267405 -0.14944773734186081
2680000000.0 0.8611249754360607 -0.14960050080774184
2685000000.0 0.8613298642249447 -0.14996047563954115
2690000000.0 0.8615701769885883 -0.15033659758749163
2695000000.0 0.8617050619583572 -0.15083943782807252
2700000000.0 0.861968769983455 -0.15105041315828413
2705000000.0 0.8621834986005554 -0.15119920936569584
2710000000.0 0.8623235145327942 -0.15171483563255247
2715000000.0 0.8626888765769372 -0.1522284666543371
2720000000.0 0.8630801335715542 -0.15241883854813612
2725000000.0 0.8632350106158981 -0.15262645446353904
2730000000.0 0.8634066575027425 -0.15298183518592695
2735000000.0 0.8639615840797675 -0.15333136588451318
2740000000.0 0.8639185039679866 -0.15373503512948555
2745000000.0 0.8644880679427077 -0.15402196901541007
2750000000.0 0.864645737942202 -0.15399513799404016
2755000000.0 0.8651013612215529 -0.1545987043335486
2760000000.0 0.8653299128398815 -0.15492021215602536
2765000000.0 0.8657764604362467 -0.1551578668307185
2770000000.0 0.8659454243121992 -0.15557058460845077
2775000000.0 0.8664519577925506 -0.15558625013613128
2780000000.0 0.8665651340869799 -0.1559841783884216
2785000000.0 0.8668988129354803 -0.1560578813612586
2790000000.0 0.8672247135497978 -0.15673053165568235
2795000000.0 0.867586745390404 -0.15688718419618622
2800000000.0 0.867915223257604 -0.15696084389699436
2805000000.0 0.8682307064574789 -0.15698020162483006
2810000000.0 0.8684937732863922 -0.1572240207141392
2815000000.0 0.8687234763432833 -0.15727968460876784
2820000000.0 0.8690824800453083 -0.1573257243171366
2825000000.0 0.8692886794623501 -0.15763000378639797
2830000000.0 0.8695814055872809 -0.15773227027294312
2835000000.0 0.8697218469910389 -0.15784517209731916
2840000000.0 0.8700575242384772 -0.15785996157185236
2845000000.0 0.8704006769674698 -0.15792776099685418
2850000000.0 0.8706571633780458 -0.1580486332752144
2855000000.0 0.8710634257918903 -0.1582243833252223
2860000000.0 0.870995939816617 -0.15839124660444562
2865000000.0 0.8713346461021294 -0.15846179877316316
2870000000.0 0.8716683922247146 -0.1587527050221174
2875000000.0 0.8719363220538503 -0.15911067340238338
2880000000.0 0.872207814600537 -0.15920517618440078
2885000000.0 0.8724710543656781 -0.15948675270541326
2890000000.0 0.8728609661147059 -0.15943739760949258
2895000000.0 0.8732598386799588 -0.15963281120505732
2900000000.0 0.8735390275417715 -0.1597432496997215
2905000000.0 0.8739213407191588 -0.15977884267654457
2910000000.0 0.8742212109785746 -0.15977747272163006
2915000000.0 0.8745475931517633 -0.1598130411167605
2920000000.0 0.8747498942712691 -0.15977065646314473
2925000000.0 0.874970895881062 -0.1597761959075738
2930000000.0 0.8753255058934324 -0.15966780582673443
2935000000.0 0.87555103158397 -0.15969454371601893
2940000000.0 0.8756081341432658 -0.15957059988637298
2945000000.0 0.8758272504141931 -0.15950453257729705
2950000000.0 0.8759318770168136 -0.15957157572734498
2955000000.0 0.8761508929019598 -0.15952155979822863
2960000000.0 0.8761808688199082 -0.1595345332191259
2965000000.0 0.8762742273797761 -0.1596114844188976
2970000000.0 0.8764841736048176 -0.15960404627168687
2975000000.0 0.8765715383485101 -0.15967480843288712
2980000000.0 0.8768284758115411 -0.1596247106555013
2985000000.0 0.8769236318692928 -0.15974435010965288
2990000000.0 0.8770429127800853 -0.15962589808212455
2995000000.0 0.8771252883423811 -0.1597877467736601
3000000000.0 0.8772883858191388 -0.1599374349988268
3005000000.0 0.8775076711212688 -0.15896572973556408
3010000000.0 0.8776039335911618 -0.15927445205631863
3015000000.0 0.877754664605368 -0.15925975041496304
3020000000.0 0.8780783457399646 -0.15970579021004924
3025000000.0 0.8779746818593956 -0.1595748553929787
3030000000.0 0.8782427799707004 -0.15953954406466656
3035000000.0 0.8783998417473518 -0.15990847773262865
3040000000.0 0.8788529968098195 -0.15967566762753435
3045000000.0 0.878951015598299 -0.15993815142741888
3050000000.0 0.8798952720352611 -0.16031556567692748
3055000000.0 0.8793233641520334 -0.16011870730178995
3060000000.0 0.8799600096488078 -0.15985814105604793
3065000000.0 0.880300537541357 -0.16008110094241385
3070000000.0 0.880594648659927 -0.15958357298736225
3075000000.0 0.8810030195878426 -0.15981153789992197
3080000000.0 0.8814295251986963 -0.1593120271217976
3085000000.0 0.8818186856056981 -0.15887186127476632
3090000000.0 0.8820425945788783 -0.1586918852341271
3095000000.0 0.8825563648946511 -0.15849274109208292
3100000000.0 0.8824865368251704 -0.15799631749054158
3105000000.0 0.8825751841253853 -0.15768415168178648
3110000000.0 0.8826729371979731 -0.15736836409319988
3115000000.0 0.8828334647864541 -0.15670711287895564
3120000000.0 0.8828939567644954 -0.15644370469772886
3125000000.0 0.8826839278823335 -0.1561281112236119
3130000000.0 0.8825902534967222 -0.1558652536374845
3135000000.0 0.8826880897521445 -0.15527881618478098
3140000000.0 0.8825538582821031 -0.15531755881873563
3145000000.0 0.8823745771025998 -0.15508166485306507
3150000000.0 0.8825807706707416 -0.15486370723391576
3155000000.0 0.8823540621125018 -0.1545064039451223
3160000000.0 0.8821113711574985 -0.1544933369458007
3165000000.0 0.8822472411420982 -0.1544131887056421
3170000000.0 0.8821840247621295 -0.1542574391663566
3175000000.0 0.8821480224378585 -0.1541534656679505
3180000000.0 0.8821964783072102 -0.15432342870457616
3185000000.0 0.8823604256190078 -0.15414172604934184
3190000000.0 0.8824246580277297 -0.1541013706109387
3195000000.0 0.8825741967503815 -0.15418369290303807
3200000000.0 0.8829108136198914 -0.15404629661956307
3205000000.0 0.8830312687244141 -0.15371403334070427
3210000000.0 0.883265414379546 -0.15366548980808048
3215000000.0 0.8835491762577767 -0.15327440620662797
3220000000.0 0.8837243490025892 -0.15278252625748104
3225000000.0 0.8837695922707829 -0.15238318013601404
3230000000.0 0.8838993967324681 -0.15180601222021467
3235000000.0 0.883937889071117 -0.15146891938115506
3240000000.0 0.8839012600170828 -0.15104998873940192
3245000000.0 0.8839186435875296 -0.15099102552588273
3250000000.0 0.8836988304582343 -0.15049660838256776
3255000000.0 0.8837411266535575 -0.14990524177356399
3260000000.0 0.8837503349502415 -0.14951270370934
3265000000.0 0.8835905176998049 -0.14927182568864655
3270000000.0 0.8834060139029093 -0.14900884183049973
3275000000.0 0.8831809090308355 -0.14877193862743934
3280000000.0 0.8830861047954217 -0.14812389299614348
3285000000.0 0.8831298424995042 -0.14819517470771637
3290000000.0 0.8831670268531217 -0.14787050767768486
3295000000.0 0.8826533938255824 -0.1471297399147667
3300000000.0 0.8824678335235893 -0.14707440979064137
3305000000.0 0.8823542862791043 -0.14728917703928723
3310000000.0 0.882518464648121 -0.14683759634345636
3315000000.0 0.8823438785547839 -0.14655513818015142
3320000000.0 0.8822544173440156 -0.14646089925150818
3325000000.0 0.8817675660375628 -0.14593785478721055
3330000000.0 0.8818513802895311 -0.1458862779557447
3335000000.0 0.8815805199398563 -0.14594817920322972
3340000000.0 0.8815434830747373 -0.14550264707764982
3345000000.0 0.8817647121581264 -0.14515384558771244
3350000000.0 0.8813653521257953 -0.14497441236113262
3355000000.0 0.8815987114577771 -0.14465428465029567
3360000000.0 0.8815864524621642 -0.14464100103663743
3365000000.0 0.8813928776401776 -0.14462135860027409
3370000000.0 0.8816828497588312 -0.1440325127535009
3375000000.0 0.8812507377831533 -0.1439104314329846
3380000000.0 0.8811088775773713 -0.1436354760335342
3385000000.0 0.8813850410209856 -0.14336576509732749
3390000000.0 0.8813451941524177 -0.14294396305179458
3395000000.0 0.8811464451513048 -0.14273981281363338
3400000000.0 0.8808702395668544 -0.14251582738687846
3405000000.0 0.8809679081799769 -0.14202505321864795
3410000000.0 0.8813342688076596 -0.1415869240643883
3415000000.0 0.8806964558370725 -0.14122083063741658
3420000000.0 0.8809481030510822 -0.14094023507525769
3425000000.0 0.8805407671365074 -0.14065817125621716
3430000000.0 0.8804061577432843 -0.14029666642093874
3435000000.0 0.8803514718029154 -0.13993538508047534
3440000000.0 0.8803770744609256 -0.13942714066997028
3445000000.0 0.8799291502118717 -0.13917710537166725
3450000000.0 0.8800014742381973 -0.13871198346129435
3455000000.0 0.8797616032275247 -0.13813994555035292
3460000000.0 0.8795339567446349 -0.13781477668579295
3465000000.0 0.87930037818071 -0.13729895579836343
3470000000.0 0.8790555867843056 -0.13697069104021764
3475000000.0 0.8787791515465354 -0.13657442672664516
3480000000.0 0.8783577978089184 -0.13619977101522943
3485000000.0 0.8779273193248017 -0.13579566235232968
3490000000.0 0.8774723314297711 -0.13557604655034433
3495000000.0 0.8770912087689097 -0.1353755319537688
3500000000.0 0.8766747079362895 -0.13516818531742247
3505000000.0 0.8763654099231164 -0.13482258091302168
3510000000.0 0.8759690833710531 -0.134803253466103
3515000000.0 0.8757961430740299 -0.13462273464736074
3520000000.0 0.8756203536251146 -0.13455755305666003
3525000000.0 0.8752114296908748 -0.13452886633597202
3530000000.0 0.8750175590066482 -0.13461269728824848
3535000000.0 0.8750653782115957 -0.13478002042822074
3540000000.0 0.8750281990488709 -0.13432059225125964
3545000000.0 0.875308553233318 -0.13418546891008815
3550000000.0 0.875346081249773 -0.13401444130259016
3555000000.0 0.875314407197093 -0.1334006171345964
3560000000.0 0.8754582596583373 -0.13283551268715887
3565000000.0 0.875454435715509 -0.13211617687749833
3570000000.0 0.875074661175371 -0.1315545634810616
3575000000.0 0.8761378405103186 -0.13140813529927087
3580000000.0 0.8750466431904246 -0.13012578426964969
3585000000.0 0.8738556215083336 -0.12885960018691084
3590000000.0 0.8732438476799675 -0.1281731949447457
3595000000.0 0.8726125719432556 -0.1279516820954408
3600000000.0 0.871380821690718 -0.12775703173438477
3605000000.0 0.8706411413878095 -0.12767594174066108
3610000000.0 0.869592999630291 -0.12784905495673754
3615000000.0 0.8692120869114104 -0.12765837033442912
3620000000.0 0.8688800475580033 -0.12832806231194294
3625000000.0 0.8681371215883515 -0.12805491906833347
3630000000.0 0.8680353307731742 -0.12865099303891586
3635000000.0 0.8680549646825956 -0.12884598704715214
3640000000.0 0.86814549296644 -0.12895101279692528
3645000000.0 0.8680745721061244 -0.1286415225565852
3650000000.0 0.8681184867658049 -0.1284373693689521
3655000000.0 0.8678924543442544 -0.12862575971262571
3660000000.0 0.86786508530636 -0.1279431805277543
3665000000.0 0.8672687745206052 -0.12795923532303624
3670000000.0 0.8674243854579771 -0.1272813388688891
3675000000.0 0.8674089492713585 -0.12741189247481513
3680000000.0 0.8670887758556395 -0.12707778213252227
3685000000.0 0.8668167837145078 -0.12642242869440584
3690000000.0 0.8666508124071408 -0.12618421600127072
3695000000.0 0.8666108116161464 -0.1260525367197666
3700000000.0 0.8660984961583689 -0.12569280962145574
3705000000.0 0.865903927501752 -0.12548212207370074
3710000000.0 0.8656599078440631 -0.12482143911062304
3715000000.0 0.8651904711842924 -0.12428651048949756
3720000000.0 0.864823290663777 -0.12358087979652195
3725000000.0 0.8642129741067093 -0.12329316374411102
3730000000.0 0.8636768015733697 -0.1223927623626409
3735000000.0 0.8628507001652423 -0.12205102468146255
3740000000.0 0.8617473310330288 -0.12176564269426947
3745000000.0 0.8608666599906395 -0.12182506452725227
3750000000.0 0.859901211558902 -0.12179234189429627
3755000000.0 0.8588916750938287 -0.12206621801365714
3760000000.0 0.8581417157050045 -0.12249945625003113
3765000000.0 0.857608222758082 -0.12327397503651805
3770000000.0 0.8573618745323279 -0.12382867355717289
3775000000.0 0.85737135598102 -0.12445352320735147
3780000000.0 0.8577990416504432 -0.12500236030693115
3785000000.0 0.8580230581288429 -0.1250119757704879
3790000000.0 0.8582661785125545 -0.12452890419025661
3795000000.0 0.8583075430505556 -0.12418382804757566
3800000000.0 0.858039770523524 -0.12342691996655708
3805000000.0 0.8579516751956672 -0.12311399306151753
3810000000.0 0.8570793462115212 -0.12267660235532235
3815000000.0 0.856713719355661 -0.12254078520514594
3820000000.0 0.8560317081141575 -0.12206286345637277
3825000000.0 0.8556822817210901 -0.12143748650574701
3830000000.0 0.8548663247057161 -0.12127371777981398
3835000000.0 0.8534667959354264 -0.12190127910521438
3840000000.0 0.8529698885965776 -0.12202533065174212
3845000000.0 0.8526481563916435 -0.12178484559195488
3850000000.0 0.8519468162616399 -0.12193070764939282
3855000000.0 0.8514858656748482 -0.12211531295381073
3860000000.0 0.8513163602224117 -0.12204296542247353
3865000000.0 0.8507046178299054 -0.12228758021138782
3870000000.0 0.8501888503978637 -0.12223984820148477
3875000000.0 0.8499596156060215 -0.12217192036053583
3880000000.0 0.8496019087400196 -0.12190608307866402
3885000000.0 0.8487501481586982 -0.1223142449982435
3890000000.0 0.8482326917289171 -0.12237276617594281
3895000000.0 0.8478445815832367 -0.12260644024968136
3900000000.0 0.8474141122281578 -0.12232568070422078
3905000000.0 0.8471094898072715 -0.12262134208034137
3910000000.0 0.8463389068965587 -0.12298764027336398
3915000000.0 0.8459678284088099 -0.12278439288266589
3920000000.0 0.8451617687003069 -0.12308992980850723
3925000000.0 0.8446563363672062 -0.123252742867077
3930000000.0 0.8441817443016585 -0.12330110246248252
3935000000.0 0.8437884098926355 -0.12365215231096216
3940000000.0 0.8432483896386624 -0.1238619283414059
3945000000.0 0.8427817407949665 -0.12389450899714344
3950000000.0 0.8422375106174462 -0.12405173702512708
3955000000.0 0.8418483436693123 -0.124314174175822
3960000000.0 0.8412278191289364 -0.12439806390206441
3965000000.0 0.8407079358811529 -0.1248869164420759
3970000000.0 0.8402254903763197 -0.12470527424031189
3975000000.0 0.8395158988794997 -0.12494087574079386
3980000000.0 0.8391354890490501 -0.12520107890928875
3985000000.0 0.8387350520496453 -0.12558433526041918
3990000000.0 0.8381134473519966 -0.12582970046843522
3995000000.0 0.837539416094432 -0.1259968120452186
4000000000.0 0.8371323833458205 -0.12628581416809423
4005000000.0 0.836531528846505 -0.1266790888879861
4010000000.0 0.8360032813346945 -0.12669446052844793
4015000000.0 0.8356449935050777 -0.1269950086217031
4020000000.0 0.8352095725989793 -0.12735660146468789
4025000000.0 0.8344431170964465 -0.12749845659037454
4030000000.0 0.8339957287145512 -0.12801963325192306
4035000000.0 0.8333587015445766 -0.128243935282612
4040000000.0 0.8329398664941549 -0.12854758615490622
4045000000.0 0.8324428545507014 -0.12890700760663903
4050000000.0 0.8319527212187583 -0.12918503601860545
4055000000.0 0.8312646625850979 -0.12961846912204797
4060000000.0 0.8307910611251346 -0.12989544749676407
4065000000.0 0.8303351165494703 -0.13034096778203128
4070000000.0 0.8297527959689054 -0.1305849126381923
4075000000.0 0.8291502900855486 -0.13105103418984088
4080000000.0 0.8285931117485352 -0.13147482132087404
4085000000.0 0.8280686784783613 -0.13172198879492578
4090000000.0 0.8274410758974022 -0.1322030409084605
4095000000.0 0.826887070642977 -0.13263265588559064
4100000000.0 0.8265655349815207 -0.13311720789541706
4105000000.0 0.825877613270096 -0.13352662186994266
4110000000.0 0.8254824054200516 -0.13402497706673408
4115000000.0 0.8248501649467682 -0.1342261970991111
4120000000.0 0.8242640952298178 -0.1347864745046225
4125000000.0 0.8237711000286121 -0.13531582851070278
4130000000.0 0.82309317235683 -0.13568268954680976
4135000000.0 0.8225688898392098 -0.1362082693076932
4140000000.0 0.8220680403371546 -0.13668680030850797
4145000000.0 0.821347482235605 -0.1370919067940701
4150000000.0 0.820869490445565 -0.13774649024853405
4155000000.0 0.8204862428031154 -0.13832259391384635
4160000000.0 0.8198260977994826 -0.13889906483158934
4165000000.0 0.8191344855584618 -0.13960705200390824
4170000000.0 0.8187308248296454 -0.13997621285158038
4175000000.0 0.8182142832361864 -0.14065499394299383
4180000000.0 0.817480976393684 -0.14138254536480468
4185000000.0 0.8171195492348249 -0.14212738888076465
4190000000.0 0.8164611659403335 -0.14262557653608693
4195000000.0 0.8162720023416423 -0.14309331935172398
4200000000.0 0.8156397649728143 -0.14402539236289752
4205000000.0 0.8149697742084635 -0.14475544771261203
4210000000.0 0.8144413974784073 -0.14513922545604638
4215000000.0 0.8142413783656319 -0.14591387066060776
4220000000.0 0.8136375377184712 -0.14672586865108442
4225000000.0 0.8133852258277848 -0.14717630730361128
4230000000.0 0.8127126755176378 -0.1478911759294398
4235000000.0 0.8123915830704358 -0.14868724918870388
4240000000.0 0.8119176034526372 -0.14930145717321044
4245000000.0 0.8114606069677259 -0.15040629295407124
4250000000.0 0.8108116447542404 -0.15090312879593232
4255000000.0 0.810233837003573 -0.15172258610001638
4260000000.0 0.8100393282101563 -0.1523118618004144
4265000000.0 0.809549251849107 -0.1531190564369125
4270000000.0 0.8091315042438254 -0.15392172801075377
4275000000.0 0.808629183701286 -0.15478683212239674
4280000000.0 0.8083103366124921 -0.15551249076628007
4285000000.0 0.8077525989566918 -0.156429323666767
4290000000.0 0.8075580443509834 -0.1571405793685167
4295000000.0 0.807078302352824 -0.1578401387085288
4300000000.0 0.8065179653933167 -0.15881805037795846
4305000000.0 0.8060500941315265 -0.15960329105840634
4310000000.0 0.8058265660983293 -0.16035519094320214
4315000000.0 0.8054324847543372 -0.1612077672558513
4320000000.0 0.8051514124351736 -0.16217334241318773
4325000000.0 0.8045226146762948 -0.16297496976605116
4330000000.0 0.8043739006505677 -0.16366920245674876
4335000000.0 0.8037554028020623 -0.16460222377683897
4340000000.0 0.803421933122368 -0.16533417610883866
4345000000.0 0.8028836705622264 -0.16640038218571676
4350000000.0 0.8026767460564794 -0.16725336221913628
4355000000.0 0.8022798810612594 -0.1681494981398434
4360000000.0 0.8018601756004403 -0.1691825022236658
4365000000.0 0.8015033172277033 -0.1701420452436519
4370000000.0 0.8009631419772917 -0.17139067217987214
4375000000.0 0.800721646032355 -0.1719534633767582
4380000000.0 0.8005350123853209 -0.17317421142731715
4385000000.0 0.800065228623283 -0.1743469438738584
4390000000.0 0.799898924512466 -0.17537743143759582
4395000000.0 0.79975273711004 -0.17632390811876592
4400000000.0 0.7996497647751064 -0.17762309128450962
4405000000.0 0.799010180990729 -0.1783527356480827
4410000000.0 0.7990557851294119 -0.17944751154763894
4415000000.0 0.7992280961294994 -0.1803357771926183
4420000000.0 0.7987893845557147 -0.18157043790064153
4425000000.0 0.7993181760466612 -0.1825789080389809
4430000000.0 0.7987229264347298 -0.18336774485917134
4435000000.0 0.7986257702408396 -0.184428102090083
4440000000.0 0.7986289034310431 -0.18514372048765565
4445000000.0 0.7982318661321284 -0.18605337340504918
4450000000.0 0.7981265384277523 -0.18695073831271217
4455000000.0 0.7980982208895199 -0.18829802579788862
4460000000.0 0.7977829756147317 -0.18889281900733038
4465000000.0 0.7976171155456467 -0.19013769351937201
4470000000.0 0.7974276616437014 -0.19082905451967994
4475000000.0 0.7971710950904116 -0.19216602661804774
4480000000.0 0.7967403834452031 -0.1932343633785916
4485000000.0 0.796705695493799 -0.1945353048341988
4490000000.0 0.7961878138454989 -0.19571841710455606
4495000000.0 0.7964036541544736 -0.1970167985369959
4500000000.0 0.796139292479664 -0.19816874771865658
4505000000.0 0.7964959551128776 -0.1993872818153134
4510000000.0 0.7966585121886259 -0.20048463021795995
4515000000.0 0.7967716113411117 -0.20181868302599149
4520000000.0 0.7969515435738828 -0.203033635834188
4525000000.0 0.797420262184174 -0.20415024609532764
4530000000.0 0.7973960092774308 -0.20506918149307826
4535000000.0 0.7978632641583466 -0.20585725405931335
4540000000.0 0.797858046151808 -0.2071146073562994
4545000000.0 0.7981681657289261 -0.2079274790477716
4550000000.0 0.7982987781958586 -0.20894659875454083
4555000000.0 0.7984398249566531 -0.21001476708483607
4560000000.0 0.798696258872145 -0.21109993667913676
4565000000.0 0.7986355419593641 -0.21181330712487323
4570000000.0 0.7991843895998166 -0.21283974390759527
4575000000.0 0.7993669866983992 -0.21375375478161981
4580000000.0 0.7995442506764795 -0.2147012044089768
4585000000.0 0.7996590808268133 -0.21564014383832683
4590000000.0 0.7999654129952996 -0.2164792760693446
4595000000.0 0.8001216142405734 -0.21750776270063144
4600000000.0 0.8002867308816112 -0.2184970307911743
4605000000.0 0.8005617024308607 -0.21938782504684362
4610000000.0 0.8008461521108142 -0.22040540728418728
4615000000.0 0.8009178054915534 -0.22133611470537568
4620000000.0 0.8011330353406766 -0.22236803295382507
4625000000.0 0.8015323351645742 -0.2233029581547459
4630000000.0 0.8017711429859328 -0.2242811641117454
4635000000.0 0.8020779204907732 -0.22526951060463885
4640000000.0 0.8023633769138886 -0.22630908612223274
4645000000.0 0.8027070919745816 -0.22733354380148485
4650000000.0 0.8029751137194151 -0.22827164836444866
4655000000.0 0.8034416276271588 -0.22941525182740466
4660000000.0 0.803876370645017 -0.2301311483642094
4665000000.0 0.8045788409676703 -0.23087387655191105
4670000000.0 0.8048676788807042 -0.23200445780438145
4675000000.0 0.8055367596262238 -0.2330614880444057
4680000000.0 0.8060995419472806 -0.23384102271535792
4685000000.0 0.8068067878624465 -0.23459606179552803
4690000000.0 0.8071065276548433 -0.2355635066678744
4695000000.0 0.8079550657906251 -0.23634633617231446
4700000000.0 0.8083778249146837 -0.23686598288100347
4705000000.0 0.8097879516921405 -0.23837039569144705
4710000000.0 0.8100470954006405 -0.2387489865065033
4715000000.0 0.810183897872459 -0.23925213883172403
4720000000.0 0.8110905235635247 -0.24014643925624105
4725000000.0 0.8117627140391476 -0.24036439776278506
4730000000.0 0.8123239548411033 -0.24090072214634012
4735000000.0 0.8128288831499462 -0.24182015612314567
4740000000.0 0.8133261975660712 -0.24240430308377983
4745000000.0 0.8136073407982434 -0.24295727582940324
4750000000.0 0.814304742186205 -0.24399127560062056
4755000000.0 0.8147241511474882 -0.2446163726095694
4760000000.0 0.8155411423986128 -0.24537485824284674
4765000000.0 0.8161975073773616 -0.24633294188436478
4770000000.0 0.8168738876751872 -0.24682216273064145
4775000000.0 0.8175764651688091 -0.24802996969174482
4780000000.0 0.8185709602883615 -0.24856948807337756
4785000000.0 0.8196215104100201 -0.2491124562742574
4790000000.0 0.8203717238883534 -0.24957807694669773
4795000000.0 0.8214359781940027 -0.25010496112186836
4800000000.0 0.8224520599899747 -0.2507923924922225
4805000000.0 0.8233726036244802 -0.2510851150844018
4810000000.0 0.8242265996999992 -0.25138663035388176
4815000000.0 0.8252059591126666 -0.2515458930151184
4820000000.0 0.8259773002367738 -0.2517218332359898
4825000000.0 0.8267717094685817 -0.2517478701130343
4830000000.0 0.8275572403621156 -0.2522000988333288
4835000000.0 0.8283994855186776 -0.25242827336100776
4840000000.0 0.8291407816443436 -0.2525338081346057
4845000000.0 0.8296760737215692 -0.25303298520185397
4850000000.0 0.8303673664761835 -0.25328569752498786
4855000000.0 0.8311565793767512 -0.2533273726915882
4860000000.0 0.8317999312701057 -0.25353946684357687
4865000000.0 0.8326742406328206 -0.2537825488065785
4870000000.0 0.83340022752722 -0.25403934478803697
4875000000.0 0.8341430990381458 -0.25422335891698167
4880000000.0 0.8348421391719667 -0.25446800055972524
4885000000.0 0.8357864446029902 -0.25334842309496197
4890000000.0 0.8364141262777055 -0.2548272883008856
4895000000.0 0.8375664299373802 -0.254821941281156
4900000000.0 0.838250004884593 -0.25478416892793465
4905000000.0 0.8389162076043671 -0.25497344349997025
4910000000.0 0.8396511117722691 -0.25511677570464
4915000000.0 0.840508404415357 -0.25531414063946534
4920000000.0 0.8414020458057616 -0.25556680670029136
4925000000.0 0.8420883546543946 -0.2553305641286441
4930000000.0 0.8429644276477918 -0.25552923159756274
4935000000.0 0.8436458496933071 -0.2551802007361448
4940000000.0 0.8446599678020739 -0.25522992096037084
4945000000.0 0.845532841225668 -0.25554616727159835
4950000000.0 0.846327700431182 -0.2553011769525718
4955000000.0 0.8472810702956929 -0.25537847119640145
4960000000.0 0.8478370986967408 -0.2554404200833108
4965000000.0 0.8488780569149906 -0.2549945625791582
4970000000.0 0.8496932720614181 -0.2551643994298132
4975000000.0 0.8502472376283366 -0.25459166122285726
4980000000.0 0.8513190686426568 -0.2548200859523062
4985000000.0 0.8516648385166817 -0.25496245268104845
4990000000.0 0.8529058862715826 -0.2544584090287637
4995000000.0 0.8539963970278321 -0.25438601501593366
5000000000.0 0.854776312806197 -0.2545272314856408
5005000000.0 0.8558210522671482 -0.25401139151623264
5010000000.0 0.8564710540308602 -0.2539288916337595
5015000000.0 0.8572562232892331 -0.2535924862577701
5020000000.0 0.8578859739393347 -0.25308915486314715
5025000000.0 0.8592953880820431 -0.25267912365473844
5030000000.0 0.8601852671692781 -0.2525551919731313
5035000000.0 0.8609593810954306 -0.2520353582125271
5040000000.0 0.8619080056625387 -0.2513322423626872
5045000000.0 0.8628276211148023 -0.2510053724252057
5050000000.0 0.8633149486843885 -0.2506120522939092
5055000000.0 0.8648674995065384 -0.2499574075057183
5060000000.0 0.8650327711428809 -0.24936090524883409
5065000000.0 0.8655938574340121 -0.2484852393413032
5070000000.0 0.8663217973662161 -0.24838642515973833
5075000000.0 0.8671805720477437 -0.2476364594989252
5080000000.0 0.8676526935902625 -0.24714991715657947
5085000000.0 0.86819324693044 -0.24631862745094546
5090000000.0 0.8690555065371026 -0.24596264671005366
5095000000.0 0.8691964604869823 -0.2453048209567527
5100000000.0 0.86994456409462 -0.24465600552676395
5105000000.0 0.870721925404527 -0.24405240782441776
5110000000.0 0.8711965512523574 -0.2438088901405026
5115000000.0 0.8716599684573427 -0.24310873320672
5120000000.0 0.8721890022409274 -0.24276344832335728
5125000000.0 0.8729025103855761 -0.2419776686724598
5130000000.0 0.8737344701905517 -0.24147379959236231
5135000000.0 0.8741759831008282 -0.24098061768326462
5140000000.0 0.8747699417274941 -0.24019798496826042
5145000000.0 0.87532959239338 -0.23954853792776648
5150000000.0 0.8757874100326286 -0.2387966086581201
5155000000.0 0.8762499897473203 -0.2381272269280584
5160000000.0 0.8767582231176966 -0.23743464634728836
5165000000.0 0.8772543658331423 -0.2367020739481271
5170000000.0 0.8778155898501047 -0.23594443050767003
5175000000.0 0.8783011566703525 -0.2352650308181503
5180000000.0 0.8786878148302852 -0.23465068353027757
5185000000.0 0.8792205314939491 -0.2339762213685834
5190000000.0 0.8797134154675729 -0.23321493761442297
5195000000.0 0.8803517052315479 -0.2325050693342556
5200000000.0 0.8806257139788928 -0.23177865463859634
5205000000.0 0.8810315706647706 -0.23109333484042027
5210000000.0 0.88159038280928 -0.23042008880005052
5215000000.0 0.8818871267995818 -0.2297693060365338
5220000000.0 0.8822455127900338 -0.2289313882843972
5225000000.0 0.8823607624989807 -0.22824911469559186
5230000000.0 0.8829860118445827 -0.22734786376549795
5235000000.0 0.8831941525979597 -0.22687136452508205
5240000000.0 0.8832873049605591 -0.22582577290931935
5245000000.0 0.8834879084222089 -0.22526435376101064
5250000000.0 0.8839050819661406 -0.2246794459468827
5255000000.0 0.8842051752224757 -0.2236156346355057
5260000000.0 0.8843864444324543 -0.22324327500658747
5265000000.0 0.8845245315069948 -0.22281995941741709
5270000000.0 0.8849955573460679 -0.22169979976199963
5275000000.0 0.8852630680013798 -0.22110698349373323
5280000000.0 0.8852731842609662 -0.22043102997138836
5285000000.0 0.8856049986931093 -0.2193313269544063
5290000000.0 0.885959303462328 -0.2190357264769801
5295000000.0 0.8863204695593441 -0.21830556541947482
5300000000.0 0.886692278966411 -0.21760316634160087
5305000000.0 0.8867330911230467 -0.21649963755526527
5310000000.0 0.8872238391314275 -0.2157215568091158
5315000000.0 0.8875262438074198 -0.2149943625597414
5320000000.0 0.8878345912715667 -0.21422570840460675
5325000000.0 0.8880864529127563 -0.21319627233221933
5330000000.0 0.8883451419948769 -0.21238752630947352
5335000000.0 0.8885846419146833 -0.2114894973568253
5340000000.0 0.8886872402957514 -0.21052897429075654
5345000000.0 0.8888183537834701 -0.20982909473143146
5350000000.0 0.8890241249830074 -0.208787005698517
5355000000.0 0.88885880983168 -0.20801114087709885
5360000000.0 0.8889110329607123 -0.20699425675031125
5365000000.0 0.8889212501328357 -0.20609240272920426
5370000000.0 0.8890994243630994 -0.2053679893864997
5375000000.0 0.8890586702770977 -0.20464072242232165
5380000000.0 0.8889477199793938 -0.2038210567427279
5385000000.0 0.8889573650338092 -0.20293753266628198
5390000000.0 0.8890842171481075 -0.20231100696972987
5395000000.0 0.8890516954970115 -0.20159042106150346
5400000000.0 0.8890776798294462 -0.20091614535004979
5405000000.0 0.8891438471969694 -0.2001232223629484
5410000000.0 0.88919116611342 -0.1991859812815311
5415000000.0 0.8889825192493025 -0.19850195330574089
5420000000.0 0.8889816222097815 -0.19776413799532327
5425000000.0 0.8889630536195509 -0.19699025716772087
5430000000.0 0.8889340880466776 -0.196194264975314
5435000000.0 0.8889462595958665 -0.19540474741233174
5440000000.0 0.8888241868862757 -0.19452843929674107
5445000000.0 0.8887636930888411 -0.19365651741522383
5450000000.0 0.8886908842794015 -0.19288955466214477
5455000000.0 0.8885390556392025 -0.19205378358934727
5460000000.0 0.8884396045282225 -0.19132405567143462
5465000000.0 0.888133832309652 -0.19050198454545827
5470000000.0 0.8879592692380719 -0.1897063205976005
5475000000.0 0.88764062390536 -0.1888713457885859
5480000000.0 0.8875286644108562 -0.18831173862562975
5485000000.0 0.8872715467544438 -0.1876583661102772
5490000000.0 0.8869360710953635 -0.1871004428589024
5495000000.0 0.8864974775516371 -0.1863989894751382
5500000000.0 0.8864248674141258 -0.18569474695537996
5505000000.0 0.8859499487204343 -0.1847882014328951
5510000000.0 0.8859094955721015 -0.1846385574711443
5515000000.0 0.8857835814229001 -0.1839956704619524
5520000000.0 0.885369841387377 -0.1835243747616292
5525000000.0 0.8850703414139025 -0.1825271671766658
5530000000.0 0.8850184120613366 -0.18202500449051356
5535000000.0 0.884724806719915 -0.1809581335256925
5540000000.0 0.8843614759631856 -0.18091474115539585
5545000000.0 0.8841990207515705 -0.18043469407841958
5550000000.0 0.883862333682731 -0.17979136055283346
5555000000.0 0.8834814470409954 -0.17914010764379343
5560000000.0 0.8827432708407505 -0.178478662725607
5565000000.0 0.88284648517179 -0.17775500454270868
5570000000.0 0.8820377107676952 -0.17746684103901664
5575000000.0 0.881666266669261 -0.17647706249775086
5580000000.0 0.8814393155819128 -0.1763045461451906
5585000000.0 0.8811435236961268 -0.1761052091357942
5590000000.0 0.8809136702449719 -0.175405924614427
5595000000.0 0.8805033260705633 -0.17478568226044877
5600000000.0 0.879799498311527 -0.1746293929425629
5605000000.0 0.8795033232918179 -0.1741816624525496
5610000000.0 0.8794145400628997 -0.17376853462612796
5615000000.0 0.8785527140323665 -0.17344971080684118
5620000000.0 0.8786182286846934 -0.17246661834122798
5625000000.0 0.8778232602750231 -0.1725460555025451
5630000000.0 0.8785350219601814 -0.1715153505937954
5635000000.0 0.8775923012984599 -0.171176638923914
5640000000.0 0.8771458421784986 -0.17094469645502783
5645000000.0 0.8766321517347035 -0.17015964962149055
5650000000.0 0.87646380264593 -0.16954110864483368
5655000000.0 0.8758398305507793 -0.16928030686262127
5660000000.0 0.8752679841629637 -0.1688107008607011
5665000000.0 0.8748084071359983 -0.16829287248861624
5670000000.0 0.8743099729213363 -0.16779073067933767
5675000000.0 0.873845032814567 -0.16751363240434877
5680000000.0 0.8732092867896539 -0.16720731469114883
5685000000.0 0.8727689850979923 -0.1668388491455193
5690000000.0 0.8723714611559799 -0.16646234761064727
5695000000.0 0.8718024557825629 -0.16586248229366998
5700000000.0 0.8714117897398794 -0.16547412714383072
5705000000.0 0.87113721866837 -0.16494550989921994
5710000000.0 0.8705378428766872 -0.16464388451826734
5715000000.0 0.8699937090578521 -0.16423765974347299
5720000000.0 0.8693316754225743 -0.1638301073511619
5725000000.0 0.8686861733295477 -0.1637212435620413
5730000000.0 0.8682951874937198 -0.16314383050213704
5735000000.0 0.8675933239171199 -0.1625545266060225
5740000000.0 0.8670717982686393 -0.1623511887725127
5745000000.0 0.8665250525834696 -0.1621007700051215
5750000000.0 0.8660276074296721 -0.16147615170435461
5755000000.0 0.8653057368468374 -0.16114370152836746
5760000000.0 0.8647323807758968 -0.1607879451608411
5765000000.0 0.8641326906438153 -0.16040310959158247
5770000000.0 0.863409123191572 -0.159992047465822
5775000000.0 0.8627176315848597 -0.15979287269991632
5780000000.0 0.8620789545981362 -0.15934486533630648
5785000000.0 0.8614529466354631 -0.15905037641469946
5790000000.0 0.8606727477292153 -0.1585830030986093
5795000000.0 0.8598520598417512 -0.15842574838548024
5800000000.0 0.8591130696416944 -0.15802666061268666
5805000000.0 0.8584689931191491 -0.15768748814128256
5810000000.0 0.8575235714699309 -0.1575462651863897
5815000000.0 0.8565589721977301 -0.15718599026645594
5820000000.0 0.8559851765919698 -0.1568252777482978
5825000000.0 0.854874964302989 -0.15680270814695707
5830000000.0 0.8542530626312056 -0.15657524995916544
5835000000.0 0.8533476174843088 -0.1562418300229942
5840000000.0 0.8523035109827857 -0.15616197320279016
5845000000.0 0.8516819564256444 -0.15573898493703747
5850000000.0 0.8505229854395792 -0.1557819618776939
5855000000.0 0.8492125268069497 -0.15553838405469175
5860000000.0 0.848635163642917 -0.15545552260300877
5865000000.0 0.8474234281785031 -0.1553088594828378
5870000000.0 0.8465872458290671 -0.15543482428957642
5875000000.0 0.8461030207296983 -0.15510939446608704
5880000000.0 0.8449240934348587 -0.15531022407682246
5885000000.0 0.8442044573194933 -0.15490418739040654
5890000000.0 0.8432358724793874 -0.15515413725542176
5895000000.0 0.8420778093063895 -0.15505087236431733
5900000000.0 0.8409679250826709 -0.15507515095287702
5905000000.0 0.8408328303874398 -0.1550493865877991
5910000000.0 0.8394138756191495 -0.15504682507721704
5915000000.0 0.8384516324521788 -0.1552194201243576
5920000000.0 0.837431547223145 -0.1551790292578906
5925000000.0 0.8363956046102662 -0.1550950537362632
5930000000.0 0.8357877129774036 -0.15542852619291353
5935000000.0 0.8347770736960718 -0.15507144327927852
5940000000.0 0.8333468668573545 -0.15542028061719465
5945000000.0 0.8323462711073865 -0.15541348318561818
5950000000.0 0.8312237764430246 -0.15563730035073842
5955000000.0 0.830417029684767 -0.1559157769829652
5960000000.0 0.8290329428682339 -0.1559795944138473
5965000000.0 0.8279748702794012 -0.15595503390408455
5970000000.0 0.8271092101046341 -0.15657775326795983
5975000000.0 0.8259218301556676 -0.1567405071465369
5980000000.0 0.8248391879871942 -0.15728735703935584
5985000000.0 0.8240515838729741 -0.15768796505508687
5990000000.0 0.8233022450023397 -0.15795318905283143
5995000000.0 0.8221186382549638 -0.15807656735134062
6000000000.0 0.8209487502842866 -0.1586199300456044
