! Created with skrf 1.12.0 (http://scikit-rf.org).
# Hz S RI R 50.0 
!freq ReS11 ImS11
!
1000000.0 0.999946 -0.001625
2000000.0 0.999943 -0.003257
3000000.0 0.999955 -0.004693
4000000.0 0.999892 -0.006409
5000000.0 0.999816 -0.008013
6000000.0 0.999779 -0.009524
7000000.0 0.999714 -0.011138
8000000.0 0.999689 -0.012732
9000000.0 0.999662 -0.014325
10000000.0 0.999484 -0.016018
11000000.0 0.999495 -0.017525
12000000.0 0.999498 -0.019217
13000000.0 0.999237 -0.020803
14000000.0 0.999299 -0.022384
15000000.0 0.999017 -0.023939
16000000.0 0.998983 -0.02561
17000000.0 0.998876 -0.027128
18000000.0 0.998737 -0.028614
19000000.0 0.998657 -0.030351
20000000.0 0.998307 -0.031941
21000000.0 0.998331 -0.033485
22000000.0 0.998176 -0.035125
23000000.0 0.998014 -0.03673
24000000.0 0.998016 -0.038218
25000000.0 0.997588 -0.039768
26000000.0 0.997436 -0.041352
27000000.0 0.997203 -0.042776
28000000.0 0.997153 -0.044439
29000000.0 0.996822 -0.045973
30000000.0 0.996667 -0.047501
31000000.0 0.996431 -0.049052
32000000.0 0.996181 -0.050601
33000000.0 0.995872 -0.052112
34000000.0 0.995809 -0.053562
35000000.0 0.995562 -0.05509
36000000.0 0.995216 -0.056456
37000000.0 0.994987 -0.058197
38000000.0 0.994586 -0.059628
39000000.0 0.994364 -0.061234
40000000.0 0.994186 -0.062736
41000000.0 0.993863 -0.064149
42000000.0 0.99344 -0.065784
43000000.0 0.993049 -0.067267
44000000.0 0.992791 -0.06869
45000000.0 0.992434 -0.070009
46000000.0 0.992136 -0.071755
47000000.0 0.99172 -0.073056
48000000.0 0.991372 -0.074616
49000000.0 0.991088 -0.075919
50000000.0 0.990808 -0.077513
51000000.0 0.990326 -0.078917
52000000.0 0.989979 -0.080344
53000000.0 0.989606 -0.081871
54000000.0 0.989141 -0.083293
55000000.0 0.98871 -0.084718
56000000.0 0.988278 -0.086138
57000000.0 0.987882 -0.087686
58000000.0 0.987453 -0.089077
59000000.0 0.986944 -0.090389
60000000.0 0.98651 -0.091976
61000000.0 0.985975 -0.093271
62000000.0 0.985529 -0.094685
63000000.0 0.984995 -0.096189
64000000.0 0.984582 -0.097537
65000000.0 0.984094 -0.098942
66000000.0 0.983487 -0.1003
67000000.0 0.983032 -0.101738
68000000.0 0.982374 -0.103107
69000000.0 0.98184 -0.104512
70000000.0 0.981146 -0.105945
71000000.0 0.98062 -0.107157
72000000.0 0.980024 -0.108417
73000000.0 0.979565 -0.109699
74000000.0 0.978921 -0.110992
75000000.0 0.978521 -0.112386
76000000.0 0.977966 -0.113625
77000000.0 0.977486 -0.1151
78000000.0 0.976901 -0.116492
79000000.0 0.976271 -0.117783
80000000.0 0.975694 -0.119175
81000000.0 0.97488 -0.120467
82000000.0 0.974143 -0.121736
83000000.0 0.973599 -0.123055
84000000.0 0.972861 -0.12445
85000000.0 0.972388 -0.125729
86000000.0 0.97176 -0.126995
87000000.0 0.970962 -0.128384
88000000.0 0.970351 -0.129581
89000000.0 0.969617 -0.130925
90000000.0 0.968839 -0.13225
91000000.0 0.968198 -0.133612
92000000.0 0.967242 -0.134833
93000000.0 0.966687 -0.136007
94000000.0 0.965892 -0.137348
95000000.0 0.965231 -0.138569
96000000.0 0.9643 -0.139739
97000000.0 0.96371 -0.141077
98000000.0 0.962888 -0.142271
99000000.0 0.962099 -0.143667
100000000.0 0.961311 -0.144724
101000000.0 0.960485 -0.146043
102000000.0 0.959726 -0.147299
103000000.0 0.958979 -0.148704
104000000.0 0.958024 -0.149853
105000000.0 0.957177 -0.151019
106000000.0 0.956419 -0.15237
107000000.0 0.955479 -0.153604
108000000.0 0.954507 -0.154817
109000000.0 0.953649 -0.156064
110000000.0 0.952811 -0.157254
111000000.0 0.951875 -0.15848
112000000.0 0.950938 -0.159582
113000000.0 0.949994 -0.160811
114000000.0 0.949141 -0.161899
115000000.0 0.948083 -0.163007
116000000.0 0.947321 -0.163982
117000000.0 0.94658 -0.16514
118000000.0 0.94573 -0.166417
119000000.0 0.944856 -0.16768
120000000.0 0.944151 -0.168743
121000000.0 0.943335 -0.170164
122000000.0 0.942344 -0.171339
123000000.0 0.941396 -0.172685
124000000.0 0.94045 -0.17382
125000000.0 0.939438 -0.175112
126000000.0 0.938516 -0.176176
127000000.0 0.937532 -0.177469
128000000.0 0.936622 -0.17858
129000000.0 0.93552 -0.179824
130000000.0 0.934526 -0.18106
131000000.0 0.933574 -0.182268
132000000.0 0.932558 -0.183326
133000000.0 0.931716 -0.184464
134000000.0 0.930677 -0.18574
135000000.0 0.929542 -0.186826
136000000.0 0.928566 -0.187941
137000000.0 0.927724 -0.189299
138000000.0 0.926644 -0.190377
139000000.0 0.925583 -0.191514
140000000.0 0.924623 -0.1928
141000000.0 0.923636 -0.193985
142000000.0 0.922599 -0.195161
143000000.0 0.921674 -0.196314
144000000.0 0.920672 -0.197315
145000000.0 0.91962 -0.198472
146000000.0 0.918578 -0.199584
147000000.0 0.917547 -0.200858
148000000.0 0.916551 -0.201963
149000000.0 0.915482 -0.203208
150000000.0 0.914479 -0.204414
151000000.0 0.913491 -0.205544
152000000.0 0.912375 -0.206539
153000000.0 0.911443 -0.207731
154000000.0 0.910424 -0.209024
155000000.0 0.909297 -0.209951
156000000.0 0.908317 -0.2113
157000000.0 0.907165 -0.21225
158000000.0 0.90615 -0.213572
159000000.0 0.90508 -0.214586
160000000.0 0.904017 -0.215759
161000000.0 0.903148 -0.216978
162000000.0 0.902016 -0.218081
163000000.0 0.900889 -0.219209
164000000.0 0.89983 -0.220319
165000000.0 0.898805 -0.221518
166000000.0 0.897801 -0.22253
167000000.0 0.896863 -0.223682
168000000.0 0.895747 -0.224807
169000000.0 0.894828 -0.226036
170000000.0 0.893738 -0.227247
171000000.0 0.892816 -0.228367
172000000.0 0.891601 -0.229616
173000000.0 0.890705 -0.230648
174000000.0 0.88965 -0.23186
175000000.0 0.888566 -0.233027
176000000.0 0.887678 -0.234017
177000000.0 0.88674 -0.23514
178000000.0 0.885728 -0.236334
179000000.0 0.88473 -0.237493
180000000.0 0.883716 -0.238532
181000000.0 0.882753 -0.239673
182000000.0 0.881781 -0.240793
183000000.0 0.880796 -0.241795
184000000.0 0.879897 -0.242931
185000000.0 0.878798 -0.244094
186000000.0 0.877997 -0.245172
187000000.0 0.876848 -0.246224
188000000.0 0.876121 -0.247277
189000000.0 0.874995 -0.248318
190000000.0 0.874083 -0.249473
191000000.0 0.873099 -0.25055
192000000.0 0.872201 -0.251828
193000000.0 0.871185 -0.252712
194000000.0 0.870247 -0.253791
195000000.0 0.869382 -0.254769
196000000.0 0.868471 -0.255833
197000000.0 0.867511 -0.256922
198000000.0 0.866552 -0.25786
199000000.0 0.865659 -0.259017
200000000.0 0.864863 -0.260034
201000000.0 0.863826 -0.261075
202000000.0 0.862962 -0.262122
203000000.0 0.862168 -0.262942
204000000.0 0.861276 -0.264052
205000000.0 0.860361 -0.264974
206000000.0 0.859457 -0.265925
207000000.0 0.85869 -0.266937
208000000.0 0.857697 -0.267934
209000000.0 0.856937 -0.269099
210000000.0 0.856095 -0.269993
211000000.0 0.855146 -0.270832
212000000.0 0.854272 -0.271782
213000000.0 0.853482 -0.272695
214000000.0 0.852547 -0.273742
215000000.0 0.851895 -0.274746
216000000.0 0.850981 -0.275496
217000000.0 0.850287 -0.276411
218000000.0 0.849358 -0.27722
219000000.0 0.848558 -0.278103
220000000.0 0.847715 -0.279074
221000000.0 0.846889 -0.279839
222000000.0 0.846157 -0.2807
223000000.0 0.845308 -0.281597
224000000.0 0.844625 -0.282453
225000000.0 0.843829 -0.283243
226000000.0 0.842966 -0.284129
227000000.0 0.842243 -0.284954
228000000.0 0.841426 -0.285716
229000000.0 0.840703 -0.286509
230000000.0 0.839934 -0.287401
231000000.0 0.839155 -0.288107
232000000.0 0.838414 -0.288793
233000000.0 0.837664 -0.289752
234000000.0 0.83692 -0.29035
235000000.0 0.836149 -0.291077
236000000.0 0.835406 -0.291783
237000000.0 0.834598 -0.292563
238000000.0 0.833958 -0.293263
239000000.0 0.833158 -0.293954
240000000.0 0.832502 -0.294614
241000000.0 0.831694 -0.295315
242000000.0 0.83104 -0.296066
243000000.0 0.830157 -0.29667
244000000.0 0.829552 -0.297131
245000000.0 0.828831 -0.297953
246000000.0 0.82793 -0.298593
247000000.0 0.827364 -0.299124
248000000.0 0.826678 -0.299729
249000000.0 0.825878 -0.300416
250000000.0 0.825189 -0.300826
251000000.0 0.824478 -0.301536
252000000.0 0.82375 -0.301993
253000000.0 0.823117 -0.302561
254000000.0 0.822302 -0.303053
255000000.0 0.821618 -0.303485
256000000.0 0.820854 -0.303997
257000000.0 0.820144 -0.304587
258000000.0 0.819504 -0.305121
259000000.0 0.818833 -0.305498
260000000.0 0.818 -0.305996
261000000.0 0.817347 -0.30644
262000000.0 0.816633 -0.30681
263000000.0 0.815895 -0.307265
264000000.0 0.815244 -0.307754
265000000.0 0.814491 -0.308212
266000000.0 0.813701 -0.308418
267000000.0 0.813043 -0.308821
268000000.0 0.812262 -0.309202
269000000.0 0.811507 -0.309661
270000000.0 0.810714 -0.30999
271000000.0 0.809948 -0.310301
272000000.0 0.809281 -0.310694
273000000.0 0.808571 -0.310839
274000000.0 0.807811 -0.311239
275000000.0 0.807068 -0.311621
276000000.0 0.806345 -0.31193
277000000.0 0.805539 -0.312156
278000000.0 0.804794 -0.312476
279000000.0 0.80388 -0.312737
280000000.0 0.803173 -0.31299
281000000.0 0.802302 -0.313312
282000000.0 0.80154 -0.313516
283000000.0 0.800721 -0.313691
284000000.0 0.799836 -0.313908
285000000.0 0.799078 -0.314175
286000000.0 0.798319 -0.314426
287000000.0 0.797569 -0.314614
288000000.0 0.796796 -0.314793
289000000.0 0.796015 -0.31504
290000000.0 0.795191 -0.315198
291000000.0 0.794469 -0.315333
292000000.0 0.793617 -0.315461
293000000.0 0.79283 -0.315512
294000000.0 0.791937 -0.31579
295000000.0 0.791176 -0.315863
296000000.0 0.790239 -0.315926
297000000.0 0.789525 -0.316116
298000000.0 0.788767 -0.316268
299000000.0 0.787801 -0.316423
300000000.0 0.787115 -0.316525
301000000.0 0.786186 -0.316663
302000000.0 0.785363 -0.316859
303000000.0 0.784489 -0.316953
304000000.0 0.783639 -0.31691
305000000.0 0.782684 -0.317146
306000000.0 0.781898 -0.317275
307000000.0 0.78097 -0.317461
308000000.0 0.780056 -0.317474
309000000.0 0.779248 -0.317646
310000000.0 0.778322 -0.317796
311000000.0 0.77732 -0.317821
312000000.0 0.776419 -0.318029
313000000.0 0.775474 -0.318099
314000000.0 0.774445 -0.318261
315000000.0 0.773562 -0.318432
316000000.0 0.77263 -0.318475
317000000.0 0.771532 -0.318628
318000000.0 0.770604 -0.31865
319000000.0 0.769651 -0.318741
320000000.0 0.768637 -0.318945
321000000.0 0.767722 -0.318992
322000000.0 0.766521 -0.319086
323000000.0 0.765515 -0.319205
324000000.0 0.76455 -0.319333
325000000.0 0.763619 -0.31942
326000000.0 0.762426 -0.319647
327000000.0 0.761545 -0.319666
328000000.0 0.760384 -0.319809
329000000.0 0.759341 -0.319954
330000000.0 0.758466 -0.320061
331000000.0 0.757347 -0.320289
332000000.0 0.756291 -0.320301
333000000.0 0.755238 -0.320427
334000000.0 0.754146 -0.320611
335000000.0 0.752986 -0.320785
336000000.0 0.751938 -0.320917
337000000.0 0.750884 -0.321034
338000000.0 0.749893 -0.321245
339000000.0 0.748772 -0.321354
340000000.0 0.747764 -0.321534
341000000.0 0.746655 -0.321594
342000000.0 0.745544 -0.321787
343000000.0 0.744493 -0.321986
344000000.0 0.74335 -0.322202
345000000.0 0.742297 -0.322407
346000000.0 0.741317 -0.322481
347000000.0 0.740233 -0.322815
348000000.0 0.739052 -0.323047
349000000.0 0.737993 -0.32318
350000000.0 0.736911 -0.323453
351000000.0 0.735814 -0.323665
352000000.0 0.734829 -0.32387
353000000.0 0.733645 -0.324188
354000000.0 0.732528 -0.324403
355000000.0 0.731503 -0.324577
356000000.0 0.73031 -0.324886
357000000.0 0.729312 -0.325187
358000000.0 0.728152 -0.325372
359000000.0 0.727183 -0.325762
360000000.0 0.726074 -0.326038
361000000.0 0.724947 -0.326278
362000000.0 0.723745 -0.326519
363000000.0 0.722782 -0.326788
364000000.0 0.721756 -0.327286
365000000.0 0.720636 -0.327452
366000000.0 0.719452 -0.327825
367000000.0 0.718547 -0.328174
368000000.0 0.717382 -0.32851
369000000.0 0.71633 -0.328834
370000000.0 0.71525 -0.329232
371000000.0 0.71421 -0.329688
372000000.0 0.713208 -0.330038
373000000.0 0.712032 -0.330413
374000000.0 0.711004 -0.330694
375000000.0 0.710006 -0.331232
376000000.0 0.708964 -0.331627
377000000.0 0.707867 -0.332109
378000000.0 0.706778 -0.332389
379000000.0 0.705805 -0.332824
380000000.0 0.704721 -0.333359
381000000.0 0.703641 -0.33383
382000000.0 0.702537 -0.334333
383000000.0 0.701614 -0.334732
384000000.0 0.700562 -0.335155
385000000.0 0.699688 -0.335731
386000000.0 0.698587 -0.336128
387000000.0 0.69765 -0.336604
388000000.0 0.696791 -0.337137
389000000.0 0.695756 -0.33772
390000000.0 0.694763 -0.338103
391000000.0 0.693843 -0.338697
392000000.0 0.692893 -0.33925
393000000.0 0.692028 -0.33977
394000000.0 0.691041 -0.340319
395000000.0 0.690189 -0.340857
396000000.0 0.689252 -0.341435
397000000.0 0.688479 -0.341974
398000000.0 0.687583 -0.34251
399000000.0 0.686642 -0.343052
400000000.0 0.685866 -0.343686
401000000.0 0.685025 -0.344254
402000000.0 0.684225 -0.344745
403000000.0 0.683324 -0.345355
404000000.0 0.682573 -0.345907
405000000.0 0.68181 -0.34655
406000000.0 0.680966 -0.347173
407000000.0 0.680319 -0.347771
408000000.0 0.679628 -0.348349
409000000.0 0.678756 -0.348937
410000000.0 0.678145 -0.349586
411000000.0 0.677371 -0.350181
412000000.0 0.676685 -0.350801
413000000.0 0.676011 -0.351444
414000000.0 0.67528 -0.351929
415000000.0 0.674634 -0.35266
416000000.0 0.674123 -0.353229
417000000.0 0.673437 -0.353825
418000000.0 0.672731 -0.354443
419000000.0 0.672123 -0.355124
420000000.0 0.671665 -0.355723
421000000.0 0.670884 -0.356304
422000000.0 0.670395 -0.356839
423000000.0 0.669796 -0.357478
424000000.0 0.669281 -0.358134
425000000.0 0.668744 -0.358734
426000000.0 0.66817 -0.359401
427000000.0 0.66774 -0.359949
428000000.0 0.667125 -0.360495
429000000.0 0.666739 -0.361132
430000000.0 0.666335 -0.361632
431000000.0 0.665815 -0.362247
432000000.0 0.665485 -0.362839
433000000.0 0.66504 -0.363384
434000000.0 0.664648 -0.363933
435000000.0 0.664395 -0.364408
436000000.0 0.66401 -0.365042
437000000.0 0.663593 -0.36551
438000000.0 0.663367 -0.36611
439000000.0 0.66305 -0.366543
440000000.0 0.662739 -0.367035
441000000.0 0.662573 -0.36772
442000000.0 0.66219 -0.367989
443000000.0 0.662009 -0.368541
444000000.0 0.661752 -0.369018
445000000.0 0.661518 -0.369472
446000000.0 0.661326 -0.36994
447000000.0 0.661077 -0.370371
448000000.0 0.660956 -0.370842
449000000.0 0.660685 -0.371194
450000000.0 0.660456 -0.371693
451000000.0 0.660401 -0.371992
452000000.0 0.660255 -0.37246
453000000.0 0.660041 -0.37282
454000000.0 0.659932 -0.373167
455000000.0 0.659853 -0.373473
456000000.0 0.659635 -0.373777
457000000.0 0.659589 -0.374147
458000000.0 0.659447 -0.374497
459000000.0 0.65936 -0.37478
460000000.0 0.659259 -0.374895
461000000.0 0.659187 -0.375197
462000000.0 0.659146 -0.375426
463000000.0 0.65911 -0.375784
464000000.0 0.658994 -0.375977
465000000.0 0.658971 -0.376172
466000000.0 0.65881 -0.376297
467000000.0 0.658939 -0.376548
468000000.0 0.658827 -0.376707
469000000.0 0.658776 -0.376837
470000000.0 0.658747 -0.376986
471000000.0 0.658697 -0.376973
472000000.0 0.658726 -0.377173
473000000.0 0.658754 -0.377236
474000000.0 0.658666 -0.377303
475000000.0 0.658674 -0.37737
476000000.0 0.65869 -0.377403
477000000.0 0.658723 -0.377432
478000000.0 0.65872 -0.377445
479000000.0 0.65869 -0.377442
480000000.0 0.658653 -0.377392
481000000.0 0.658652 -0.377391
482000000.0 0.658626 -0.377319
483000000.0 0.658602 -0.37718
484000000.0 0.658582 -0.377179
485000000.0 0.658494 -0.377076
486000000.0 0.65857 -0.376925
487000000.0 0.658416 -0.376805
488000000.0 0.658491 -0.376671
489000000.0 0.65841 -0.376523
490000000.0 0.658386 -0.376403
491000000.0 0.658292 -0.376212
492000000.0 0.658315 -0.375982
493000000.0 0.658275 -0.375726
494000000.0 0.658224 -0.375564
495000000.0 0.658101 -0.37526
496000000.0 0.658086 -0.375041
497000000.0 0.65803 -0.374834
498000000.0 0.658022 -0.374528
499000000.0 0.657799 -0.374356
500000000.0 0.657758 -0.374004
501000000.0 0.657703 -0.373683
502000000.0 0.657594 -0.373369
503000000.0 0.657456 -0.373015
504000000.0 0.657291 -0.37272
505000000.0 0.657086 -0.37244
506000000.0 0.657045 -0.371963
507000000.0 0.656856 -0.371732
508000000.0 0.656624 -0.37131
509000000.0 0.656554 -0.370979
510000000.0 0.656343 -0.370576
511000000.0 0.65611 -0.370164
512000000.0 0.65585 -0.369686
513000000.0 0.655641 -0.369345
514000000.0 0.655399 -0.368763
515000000.0 0.655127 -0.368341
516000000.0 0.654845 -0.367925
517000000.0 0.654654 -0.367603
518000000.0 0.654319 -0.3671
519000000.0 0.654085 -0.366595
520000000.0 0.653649 -0.366207
521000000.0 0.653431 -0.365781
522000000.0 0.653129 -0.365198
523000000.0 0.652736 -0.364728
524000000.0 0.652446 -0.364326
525000000.0 0.652095 -0.363791
526000000.0 0.651618 -0.363446
527000000.0 0.651376 -0.362871
528000000.0 0.651007 -0.362396
529000000.0 0.650514 -0.361989
530000000.0 0.650185 -0.361547
531000000.0 0.649746 -0.36102
532000000.0 0.649211 -0.360538
533000000.0 0.648798 -0.360128
534000000.0 0.648357 -0.35964
535000000.0 0.647883 -0.359054
536000000.0 0.647392 -0.358592
537000000.0 0.646848 -0.358107
538000000.0 0.646333 -0.357659
539000000.0 0.645893 -0.357189
540000000.0 0.645422 -0.356758
541000000.0 0.644856 -0.356338
542000000.0 0.644214 -0.355805
543000000.0 0.643728 -0.355421
544000000.0 0.643044 -0.355069
545000000.0 0.642527 -0.354558
546000000.0 0.64189 -0.353966
547000000.0 0.64138 -0.353661
548000000.0 0.640729 -0.353122
549000000.0 0.640046 -0.352765
550000000.0 0.639461 -0.352227
551000000.0 0.638773 -0.351832
552000000.0 0.638173 -0.351469
553000000.0 0.63742 -0.351095
554000000.0 0.636856 -0.350768
555000000.0 0.63612 -0.350373
556000000.0 0.635456 -0.349985
557000000.0 0.634654 -0.349652
558000000.0 0.633936 -0.349264
559000000.0 0.633197 -0.348865
560000000.0 0.632521 -0.348624
561000000.0 0.631798 -0.348307
562000000.0 0.630978 -0.347915
563000000.0 0.630259 -0.347578
564000000.0 0.629513 -0.347342
565000000.0 0.6287 -0.347139
566000000.0 0.627924 -0.346805
567000000.0 0.62718 -0.346576
568000000.0 0.626346 -0.346302
569000000.0 0.625598 -0.346035
570000000.0 0.624798 -0.345902
571000000.0 0.624 -0.34566
572000000.0 0.623156 -0.345347
573000000.0 0.622344 -0.345268
574000000.0 0.621575 -0.345068
575000000.0 0.620717 -0.344974
576000000.0 0.620009 -0.344831
577000000.0 0.619117 -0.344627
578000000.0 0.618183 -0.344492
579000000.0 0.617524 -0.344392
580000000.0 0.616597 -0.344254
581000000.0 0.615784 -0.344171
582000000.0 0.614892 -0.344069
583000000.0 0.614126 -0.344049
584000000.0 0.6133 -0.344003
585000000.0 0.612413 -0.343941
586000000.0 0.611651 -0.343991
587000000.0 0.610767 -0.34403
588000000.0 0.609934 -0.344044
589000000.0 0.609133 -0.343956
590000000.0 0.608346 -0.343932
591000000.0 0.607468 -0.344034
592000000.0 0.606576 -0.344014
593000000.0 0.605901 -0.344117
594000000.0 0.605065 -0.344169
595000000.0 0.604246 -0.344148
596000000.0 0.603381 -0.344348
597000000.0 0.602601 -0.344443
598000000.0 0.601762 -0.344593
599000000.0 0.601072 -0.344748
600000000.0 0.600232 -0.344818
601000000.0 0.599441 -0.345062
602000000.0 0.598721 -0.345182
603000000.0 0.597902 -0.345345
604000000.0 0.597119 -0.345722
605000000.0 0.596398 -0.345859
606000000.0 0.595565 -0.346089
607000000.0 0.594781 -0.346298
608000000.0 0.594106 -0.346537
609000000.0 0.593402 -0.346795
610000000.0 0.592676 -0.347053
611000000.0 0.591998 -0.347355
612000000.0 0.591285 -0.347622
613000000.0 0.590557 -0.347864
614000000.0 0.589954 -0.348173
615000000.0 0.58926 -0.348521
616000000.0 0.588533 -0.348831
617000000.0 0.587935 -0.349093
618000000.0 0.587396 -0.34951
619000000.0 0.586785 -0.349907
620000000.0 0.586178 -0.350252
621000000.0 0.58558 -0.350611
622000000.0 0.585011 -0.350953
623000000.0 0.584526 -0.351273
624000000.0 0.583996 -0.351794
625000000.0 0.583524 -0.352191
626000000.0 0.582997 -0.352512
627000000.0 0.582459 -0.352996
628000000.0 0.582012 -0.353446
629000000.0 0.581527 -0.353792
630000000.0 0.581118 -0.354306
631000000.0 0.580651 -0.354747
632000000.0 0.580326 -0.355101
633000000.0 0.579918 -0.355621
634000000.0 0.579574 -0.355958
635000000.0 0.579232 -0.356361
636000000.0 0.578905 -0.356852
637000000.0 0.578589 -0.357318
638000000.0 0.578364 -0.35775
639000000.0 0.577925 -0.358281
640000000.0 0.577699 -0.358683
641000000.0 0.5773 -0.359086
642000000.0 0.577092 -0.359593
643000000.0 0.576872 -0.360021
644000000.0 0.576607 -0.360513
645000000.0 0.576347 -0.360946
646000000.0 0.576182 -0.361267
647000000.0 0.575994 -0.361749
648000000.0 0.575917 -0.362201
649000000.0 0.575761 -0.36258
650000000.0 0.575611 -0.362976
651000000.0 0.575529 -0.363326
652000000.0 0.575432 -0.363775
653000000.0 0.575426 -0.364168
654000000.0 0.575349 -0.364565
655000000.0 0.575431 -0.364925
656000000.0 0.575418 -0.365297
657000000.0 0.575333 -0.365666
658000000.0 0.575451 -0.36598
659000000.0 0.575419 -0.366371
660000000.0 0.575566 -0.366711
661000000.0 0.57565 -0.367086
662000000.0 0.575761 -0.367343
663000000.0 0.575794 -0.367606
664000000.0 0.575933 -0.367976
665000000.0 0.576134 -0.368221
666000000.0 0.576194 -0.368485
667000000.0 0.576335 -0.368842
668000000.0 0.576495 -0.369063
669000000.0 0.576698 -0.369269
670000000.0 0.576903 -0.369578
671000000.0 0.577137 -0.369738
672000000.0 0.577306 -0.369939
673000000.0 0.577553 -0.370153
674000000.0 0.577812 -0.370378
675000000.0 0.577985 -0.370416
676000000.0 0.57825 -0.370582
677000000.0 0.578591 -0.370722
678000000.0 0.578795 -0.370886
679000000.0 0.579056 -0.370896
680000000.0 0.579385 -0.371079
681000000.0 0.579667 -0.371186
682000000.0 0.57992 -0.371141
683000000.0 0.580232 -0.37113
684000000.0 0.580566 -0.37115
685000000.0 0.580839 -0.371118
686000000.0 0.58121 -0.371118
687000000.0 0.581411 -0.371048
688000000.0 0.581685 -0.370974
689000000.0 0.582018 -0.370897
690000000.0 0.582273 -0.370844
691000000.0 0.582559 -0.370747
692000000.0 0.582868 -0.370635
693000000.0 0.583217 -0.37046
694000000.0 0.583558 -0.370336
695000000.0 0.583858 -0.370104
696000000.0 0.584204 -0.369809
697000000.0 0.584602 -0.369747
698000000.0 0.584832 -0.369521
699000000.0 0.585142 -0.369127
700000000.0 0.585529 -0.368901
701000000.0 0.585813 -0.368617
702000000.0 0.586071 -0.368301
703000000.0 0.586395 -0.367971
704000000.0 0.586649 -0.367527
705000000.0 0.586942 -0.367273
706000000.0 0.587198 -0.366788
707000000.0 0.587542 -0.366513
708000000.0 0.587723 -0.366035
709000000.0 0.58801 -0.365636
710000000.0 0.588286 -0.365303
711000000.0 0.588543 -0.364718
712000000.0 0.588651 -0.364286
713000000.0 0.588962 -0.363841
714000000.0 0.589184 -0.363321
715000000.0 0.589456 -0.362818
716000000.0 0.589705 -0.362337
717000000.0 0.589823 -0.36181
718000000.0 0.589941 -0.361303
719000000.0 0.590193 -0.360738
720000000.0 0.590338 -0.360149
721000000.0 0.590397 -0.359568
722000000.0 0.590519 -0.358908
723000000.0 0.590563 -0.358295
724000000.0 0.590778 -0.35777
725000000.0 0.590817 -0.357046
726000000.0 0.590776 -0.356448
727000000.0 0.590886 -0.355717
728000000.0 0.590938 -0.355057
729000000.0 0.590897 -0.354363
730000000.0 0.590887 -0.353699
731000000.0 0.590902 -0.353075
732000000.0 0.590937 -0.352399
733000000.0 0.590803 -0.351608
734000000.0 0.590805 -0.350916
735000000.0 0.590789 -0.350188
736000000.0 0.590677 -0.349484
737000000.0 0.590572 -0.348729
738000000.0 0.590471 -0.347987
739000000.0 0.590329 -0.347314
740000000.0 0.5902 -0.346567
741000000.0 0.590088 -0.345802
742000000.0 0.589886 -0.344973
743000000.0 0.589661 -0.344248
744000000.0 0.589427 -0.343581
745000000.0 0.589247 -0.342783
746000000.0 0.588946 -0.34197
747000000.0 0.588734 -0.341137
748000000.0 0.58841 -0.340431
749000000.0 0.58815 -0.339602
750000000.0 0.587861 -0.338879
751000000.0 0.587527 -0.33816
752000000.0 0.58716 -0.337366
753000000.0 0.5868 -0.336597
754000000.0 0.586389 -0.335824
755000000.0 0.586066 -0.335121
756000000.0 0.585603 -0.334314
757000000.0 0.585158 -0.333588
758000000.0 0.584754 -0.332804
759000000.0 0.584296 -0.3322
760000000.0 0.58382 -0.331311
761000000.0 0.583342 -0.330639
762000000.0 0.582796 -0.329951
763000000.0 0.582275 -0.329209
764000000.0 0.581769 -0.32849
765000000.0 0.581128 -0.32783
766000000.0 0.58056 -0.327101
767000000.0 0.580068 -0.326324
768000000.0 0.579342 -0.325632
769000000.0 0.578713 -0.324979
770000000.0 0.578102 -0.324338
771000000.0 0.57742 -0.323763
772000000.0 0.576775 -0.323052
773000000.0 0.576038 -0.322438
774000000.0 0.575411 -0.321837
775000000.0 0.574688 -0.321265
776000000.0 0.574013 -0.320596
777000000.0 0.573248 -0.320062
778000000.0 0.572501 -0.319494
779000000.0 0.571706 -0.318832
780000000.0 0.571024 -0.318331
781000000.0 0.570238 -0.317793
782000000.0 0.569444 -0.317267
783000000.0 0.568705 -0.316703
784000000.0 0.567885 -0.31622
785000000.0 0.566988 -0.315764
786000000.0 0.566283 -0.315378
787000000.0 0.565374 -0.314804
788000000.0 0.564564 -0.314465
789000000.0 0.563737 -0.314003
790000000.0 0.562829 -0.313522
791000000.0 0.56204 -0.313205
792000000.0 0.561175 -0.312768
793000000.0 0.560272 -0.31246
794000000.0 0.559421 -0.312045
795000000.0 0.558583 -0.311781
796000000.0 0.557712 -0.311431
797000000.0 0.556856 -0.311079
798000000.0 0.555965 -0.310801
799000000.0 0.555048 -0.310558
800000000.0 0.554163 -0.310315
801000000.0 0.553276 -0.310061
802000000.0 0.55233 -0.309806
803000000.0 0.5515 -0.309671
804000000.0 0.550502 -0.309457
805000000.0 0.549531 -0.309333
806000000.0 0.548634 -0.309194
807000000.0 0.547728 -0.309045
808000000.0 0.546771 -0.308976
809000000.0 0.545803 -0.308897
810000000.0 0.544988 -0.308752
811000000.0 0.544066 -0.308771
812000000.0 0.543157 -0.308671
813000000.0 0.542168 -0.308637
814000000.0 0.541335 -0.30867
815000000.0 0.540369 -0.308659
816000000.0 0.539507 -0.308697
817000000.0 0.538567 -0.308808
818000000.0 0.537763 -0.308804
819000000.0 0.536839 -0.308803
820000000.0 0.536007 -0.308908
821000000.0 0.535075 -0.309107
822000000.0 0.534228 -0.309166
823000000.0 0.533406 -0.309283
824000000.0 0.532529 -0.309529
825000000.0 0.531729 -0.309627
826000000.0 0.530813 -0.309792
827000000.0 0.529974 -0.310038
828000000.0 0.529223 -0.310209
829000000.0 0.528404 -0.310492
830000000.0 0.527573 -0.310708
831000000.0 0.526897 -0.310988
832000000.0 0.526116 -0.311232
833000000.0 0.525289 -0.311505
834000000.0 0.5246 -0.311859
835000000.0 0.523813 -0.312161
836000000.0 0.5231 -0.312443
837000000.0 0.52243 -0.312783
838000000.0 0.521753 -0.313242
839000000.0 0.520992 -0.31361
840000000.0 0.520386 -0.313996
841000000.0 0.519709 -0.314357
842000000.0 0.519043 -0.31476
843000000.0 0.518372 -0.315161
844000000.0 0.517856 -0.315572
845000000.0 0.517225 -0.316026
846000000.0 0.51673 -0.316421
847000000.0 0.516152 -0.316858
848000000.0 0.515575 -0.317305
849000000.0 0.515047 -0.317789
850000000.0 0.514532 -0.318195
851000000.0 0.513942 -0.318679
852000000.0 0.513563 -0.319184
853000000.0 0.513105 -0.319668
854000000.0 0.512654 -0.3202
855000000.0 0.512196 -0.320655
856000000.0 0.511708 -0.321085
857000000.0 0.511389 -0.321587
858000000.0 0.511044 -0.322113
859000000.0 0.51064 -0.322664
860000000.0 0.510294 -0.323152
861000000.0 0.509978 -0.323659
862000000.0 0.509696 -0.324162
863000000.0 0.509421 -0.324614
864000000.0 0.509155 -0.325171
865000000.0 0.508906 -0.325687
866000000.0 0.508747 -0.326193
867000000.0 0.508584 -0.326642
868000000.0 0.508329 -0.327111
869000000.0 0.508204 -0.327667
870000000.0 0.508063 -0.328265
871000000.0 0.507946 -0.328694
872000000.0 0.507824 -0.329147
873000000.0 0.507786 -0.329749
874000000.0 0.507759 -0.330221
875000000.0 0.507661 -0.330688
876000000.0 0.507593 -0.331091
877000000.0 0.507629 -0.331467
878000000.0 0.50765 -0.331974
879000000.0 0.507621 -0.332392
880000000.0 0.507723 -0.33282
881000000.0 0.507787 -0.333229
882000000.0 0.507797 -0.333519
883000000.0 0.507907 -0.3339
884000000.0 0.508021 -0.334241
885000000.0 0.508164 -0.334677
886000000.0 0.508296 -0.33501
887000000.0 0.508397 -0.335369
888000000.0 0.508498 -0.33565
889000000.0 0.508746 -0.336007
890000000.0 0.508952 -0.336338
891000000.0 0.509141 -0.336589
892000000.0 0.509421 -0.336814
893000000.0 0.509539 -0.337082
894000000.0 0.509872 -0.337315
895000000.0 0.510087 -0.337491
896000000.0 0.510394 -0.337666
897000000.0 0.510654 -0.337914
898000000.0 0.510893 -0.33801
899000000.0 0.511236 -0.338137
900000000.0 0.511533 -0.338246
901000000.0 0.511827 -0.338334
902000000.0 0.512206 -0.338477
903000000.0 0.512495 -0.338525
904000000.0 0.512779 -0.338565
905000000.0 0.513178 -0.338564
906000000.0 0.513447 -0.338583
907000000.0 0.513746 -0.338605
908000000.0 0.514265 -0.33857
909000000.0 0.514512 -0.338537
910000000.0 0.514871 -0.33838
911000000.0 0.51517 -0.338282
912000000.0 0.515583 -0.338241
913000000.0 0.515999 -0.337972
914000000.0 0.51631 -0.337861
915000000.0 0.516633 -0.337709
916000000.0 0.516931 -0.337507
917000000.0 0.517348 -0.33729
918000000.0 0.51766 -0.337007
919000000.0 0.517993 -0.336828
920000000.0 0.518401 -0.336414
921000000.0 0.518643 -0.336106
922000000.0 0.518999 -0.335866
923000000.0 0.519258 -0.335544
924000000.0 0.519594 -0.335161
925000000.0 0.519838 -0.334707
926000000.0 0.52012 -0.33434
927000000.0 0.520469 -0.333945
928000000.0 0.52078 -0.333551
929000000.0 0.521049 -0.333026
930000000.0 0.521281 -0.332672
931000000.0 0.521499 -0.332171
932000000.0 0.521717 -0.331631
933000000.0 0.521895 -0.331078
934000000.0 0.522108 -0.330516
935000000.0 0.522341 -0.329953
936000000.0 0.522522 -0.329464
937000000.0 0.522745 -0.328836
938000000.0 0.522817 -0.328192
939000000.0 0.522959 -0.327642
940000000.0 0.523113 -0.326953
941000000.0 0.523156 -0.32628
942000000.0 0.52334 -0.325615
943000000.0 0.523343 -0.324909
944000000.0 0.523498 -0.324192
945000000.0 0.523565 -0.323573
946000000.0 0.523543 -0.32285
947000000.0 0.523485 -0.322146
948000000.0 0.523434 -0.321335
949000000.0 0.523447 -0.320706
950000000.0 0.523575 -0.319968
951000000.0 0.523459 -0.319249
952000000.0 0.523268 -0.31844
953000000.0 0.523228 -0.31769
954000000.0 0.523064 -0.316951
955000000.0 0.523016 -0.316127
956000000.0 0.522811 -0.315291
957000000.0 0.522712 -0.314499
958000000.0 0.522507 -0.313816
959000000.0 0.522227 -0.312949
960000000.0 0.521961 -0.312187
961000000.0 0.521764 -0.311354
962000000.0 0.521452 -0.31054
963000000.0 0.521173 -0.3097
964000000.0 0.520828 -0.308877
965000000.0 0.520466 -0.308073
966000000.0 0.520069 -0.307212
967000000.0 0.519733 -0.306427
968000000.0 0.519297 -0.305597
969000000.0 0.51888 -0.304881
970000000.0 0.518406 -0.303975
971000000.0 0.518033 -0.303124
972000000.0 0.517486 -0.302388
973000000.0 0.517011 -0.301547
974000000.0 0.516462 -0.300828
975000000.0 0.515889 -0.299994
976000000.0 0.515277 -0.299242
977000000.0 0.514683 -0.298462
978000000.0 0.514085 -0.297662
979000000.0 0.513439 -0.296892
980000000.0 0.512782 -0.296164
981000000.0 0.512153 -0.295354
982000000.0 0.51135 -0.294718
983000000.0 0.510741 -0.293939
984000000.0 0.510061 -0.293283
985000000.0 0.509252 -0.292555
986000000.0 0.508527 -0.291816
987000000.0 0.507746 -0.291123
988000000.0 0.506965 -0.290496
989000000.0 0.506213 -0.289856
990000000.0 0.505339 -0.289229
991000000.0 0.504552 -0.288507
992000000.0 0.503707 -0.28788
993000000.0 0.502778 -0.287231
994000000.0 0.501946 -0.286609
995000000.0 0.501021 -0.286039
996000000.0 0.500075 -0.285484
997000000.0 0.49913 -0.284909
998000000.0 0.498212 -0.284351
999000000.0 0.497249 -0.283869
1000000000.0 0.496277 -0.283355
1001000000.0 0.495274 -0.282857
1002000000.0 0.4942 -0.282424
1003000000.0 0.493219 -0.281981
1004000000.0 0.4922 -0.281549
1005000000.0 0.491114 -0.281141
1006000000.0 0.490027 -0.28067
1007000000.0 0.489028 -0.280348
1008000000.0 0.487899 -0.280004
1009000000.0 0.486807 -0.279659
1010000000.0 0.485702 -0.279403
1011000000.0 0.484602 -0.279058
1012000000.0 0.483487 -0.278811
1013000000.0 0.482356 -0.278506
1014000000.0 0.481307 -0.2783
1015000000.0 0.480143 -0.278102
1016000000.0 0.478944 -0.27792
1017000000.0 0.477811 -0.27775
1018000000.0 0.476696 -0.27754
1019000000.0 0.475589 -0.277332
1020000000.0 0.474409 -0.277269
1021000000.0 0.473294 -0.277229
1022000000.0 0.471985 -0.27709
1023000000.0 0.470891 -0.277053
1024000000.0 0.469709 -0.276989
1025000000.0 0.468493 -0.277001
1026000000.0 0.467337 -0.277059
1027000000.0 0.466103 -0.277097
1028000000.0 0.464963 -0.277203
1029000000.0 0.463842 -0.277324
1030000000.0 0.462588 -0.277457
1031000000.0 0.461412 -0.277648
1032000000.0 0.460234 -0.277829
1033000000.0 0.459061 -0.278044
1034000000.0 0.457954 -0.278298
1035000000.0 0.456767 -0.278414
1036000000.0 0.45567 -0.278835
1037000000.0 0.454548 -0.279045
1038000000.0 0.453355 -0.279411
1039000000.0 0.452276 -0.279745
1040000000.0 0.451141 -0.280085
1041000000.0 0.450106 -0.280491
1042000000.0 0.44897 -0.280854
1043000000.0 0.447823 -0.281321
1044000000.0 0.446877 -0.281791
1045000000.0 0.445699 -0.282228
1046000000.0 0.444689 -0.282717
1047000000.0 0.44361 -0.283212
1048000000.0 0.442698 -0.283745
1049000000.0 0.44164 -0.284246
1050000000.0 0.440625 -0.284837
1051000000.0 0.439641 -0.285449
1052000000.0 0.438694 -0.286038
1053000000.0 0.437774 -0.286646
1054000000.0 0.436752 -0.287339
1055000000.0 0.435849 -0.287963
1056000000.0 0.43499 -0.288604
1057000000.0 0.434117 -0.289389
1058000000.0 0.433223 -0.290005
1059000000.0 0.43238 -0.290757
1060000000.0 0.431554 -0.29152
1061000000.0 0.430715 -0.292268
1062000000.0 0.429938 -0.293082
1063000000.0 0.429192 -0.293853
1064000000.0 0.428487 -0.294574
1065000000.0 0.427776 -0.295479
1066000000.0 0.426983 -0.296279
1067000000.0 0.426419 -0.297135
1068000000.0 0.425672 -0.29803
1069000000.0 0.425059 -0.298934
1070000000.0 0.424474 -0.299753
1071000000.0 0.423872 -0.300552
1072000000.0 0.423366 -0.301547
1073000000.0 0.422905 -0.302424
1074000000.0 0.422354 -0.303309
1075000000.0 0.421931 -0.304254
1076000000.0 0.421496 -0.305154
1077000000.0 0.420985 -0.306058
1078000000.0 0.420614 -0.306978
1079000000.0 0.420281 -0.307972
1080000000.0 0.419903 -0.308872
1081000000.0 0.419611 -0.309798
1082000000.0 0.419304 -0.310657
1083000000.0 0.419066 -0.311647
1084000000.0 0.41881 -0.312555
1085000000.0 0.418599 -0.31349
1086000000.0 0.418455 -0.314417
1087000000.0 0.418193 -0.315318
1088000000.0 0.418107 -0.31619
1089000000.0 0.41801 -0.317146
1090000000.0 0.417933 -0.318044
1091000000.0 0.417846 -0.318928
1092000000.0 0.417846 -0.319829
1093000000.0 0.417763 -0.320697
1094000000.0 0.417782 -0.321604
1095000000.0 0.417882 -0.322476
1096000000.0 0.417872 -0.323193
1097000000.0 0.417933 -0.32412
1098000000.0 0.418146 -0.324971
1099000000.0 0.418222 -0.325782
1100000000.0 0.418457 -0.3265
1101000000.0 0.418606 -0.327318
1102000000.0 0.418838 -0.32812
1103000000.0 0.419068 -0.328881
1104000000.0 0.41936 -0.329565
1105000000.0 0.419711 -0.330321
1106000000.0 0.419919 -0.330966
1107000000.0 0.42022 -0.331602
1108000000.0 0.420581 -0.332291
1109000000.0 0.420907 -0.332945
1110000000.0 0.421317 -0.333519
1111000000.0 0.421728 -0.334146
1112000000.0 0.422094 -0.334722
1113000000.0 0.422599 -0.33534
1114000000.0 0.422981 -0.335905
1115000000.0 0.423495 -0.336376
1116000000.0 0.423935 -0.336858
1117000000.0 0.424414 -0.337305
1118000000.0 0.424932 -0.33776
1119000000.0 0.425529 -0.338161
1120000000.0 0.425964 -0.338636
1121000000.0 0.426508 -0.338975
1122000000.0 0.42703 -0.339307
1123000000.0 0.427594 -0.339615
1124000000.0 0.428163 -0.339907
1125000000.0 0.428752 -0.340114
1126000000.0 0.429182 -0.340431
1127000000.0 0.429808 -0.340593
1128000000.0 0.430342 -0.340739
1129000000.0 0.430949 -0.340931
1130000000.0 0.431488 -0.341041
1131000000.0 0.432108 -0.34107
1132000000.0 0.432702 -0.34129
1133000000.0 0.433392 -0.341221
1134000000.0 0.4338 -0.341284
1135000000.0 0.434444 -0.341255
1136000000.0 0.434927 -0.341303
1137000000.0 0.435616 -0.341192
1138000000.0 0.436124 -0.341119
1139000000.0 0.436663 -0.341011
1140000000.0 0.437276 -0.340857
1141000000.0 0.437833 -0.34066
1142000000.0 0.438369 -0.340496
1143000000.0 0.438829 -0.340252
1144000000.0 0.439289 -0.340021
1145000000.0 0.439868 -0.339781
1146000000.0 0.440406 -0.339533
1147000000.0 0.440893 -0.339214
1148000000.0 0.441396 -0.338828
1149000000.0 0.44183 -0.338537
1150000000.0 0.442315 -0.338122
1151000000.0 0.442754 -0.337752
1152000000.0 0.443189 -0.337315
1153000000.0 0.443586 -0.336884
1154000000.0 0.443982 -0.336416
1155000000.0 0.44439 -0.335882
1156000000.0 0.444713 -0.335333
1157000000.0 0.445128 -0.334819
1158000000.0 0.44545 -0.334225
1159000000.0 0.44581 -0.333614
1160000000.0 0.446073 -0.333043
1161000000.0 0.44635 -0.332447
1162000000.0 0.446593 -0.331895
1163000000.0 0.446857 -0.331157
1164000000.0 0.446942 -0.330507
1165000000.0 0.447139 -0.32987
1166000000.0 0.447314 -0.329229
1167000000.0 0.447421 -0.32852
1168000000.0 0.447493 -0.327777
1169000000.0 0.447573 -0.327053
1170000000.0 0.447576 -0.326439
1171000000.0 0.44766 -0.325682
1172000000.0 0.447575 -0.32493
1173000000.0 0.447607 -0.324242
1174000000.0 0.447611 -0.323476
1175000000.0 0.447569 -0.322788
1176000000.0 0.44743 -0.321886
1177000000.0 0.447381 -0.321215
1178000000.0 0.447158 -0.320442
1179000000.0 0.446975 -0.319702
1180000000.0 0.446779 -0.31882
1181000000.0 0.446536 -0.318085
1182000000.0 0.446309 -0.317309
1183000000.0 0.446099 -0.31649
1184000000.0 0.445728 -0.315714
1185000000.0 0.445579 -0.314957
1186000000.0 0.445237 -0.314154
1187000000.0 0.444784 -0.313357
1188000000.0 0.444353 -0.312604
1189000000.0 0.443877 -0.311824
1190000000.0 0.443448 -0.311048
1191000000.0 0.442908 -0.310287
1192000000.0 0.442522 -0.309587
1193000000.0 0.441941 -0.308752
1194000000.0 0.441353 -0.307986
1195000000.0 0.440819 -0.307254
1196000000.0 0.440149 -0.30653
1197000000.0 0.439554 -0.305762
1198000000.0 0.43889 -0.305079
1199000000.0 0.43827 -0.304336
1200000000.0 0.437481 -0.303742
1201000000.0 0.436782 -0.303035
1202000000.0 0.436083 -0.302355
1203000000.0 0.435232 -0.301759
1204000000.0 0.434534 -0.301057
1205000000.0 0.433647 -0.30054
1206000000.0 0.432832 -0.299914
1207000000.0 0.431946 -0.299317
1208000000.0 0.431074 -0.298755
1209000000.0 0.430235 -0.29826
1210000000.0 0.429271 -0.297753
1211000000.0 0.42828 -0.297253
1212000000.0 0.427378 -0.296717
1213000000.0 0.426324 -0.296309
1214000000.0 0.425361 -0.295901
1215000000.0 0.424331 -0.295461
1216000000.0 0.423307 -0.295041
1217000000.0 0.422254 -0.294697
1218000000.0 0.421233 -0.294329
1219000000.0 0.420162 -0.294016
1220000000.0 0.41905 -0.293649
1221000000.0 0.417962 -0.293332
1222000000.0 0.416863 -0.293096
1223000000.0 0.415729 -0.292799
1224000000.0 0.414615 -0.292575
1225000000.0 0.413492 -0.292379
1226000000.0 0.412268 -0.29222
1227000000.0 0.411139 -0.292112
1228000000.0 0.409901 -0.291985
1229000000.0 0.408755 -0.291926
1230000000.0 0.407548 -0.291814
1231000000.0 0.406307 -0.291715
1232000000.0 0.405091 -0.291787
1233000000.0 0.403878 -0.291791
1234000000.0 0.402624 -0.291851
1235000000.0 0.401392 -0.291983
1236000000.0 0.400122 -0.292032
1237000000.0 0.398908 -0.292243
1238000000.0 0.397727 -0.292409
1239000000.0 0.396449 -0.292515
1240000000.0 0.395217 -0.292691
1241000000.0 0.393951 -0.292911
1242000000.0 0.392782 -0.293312
1243000000.0 0.391477 -0.293655
1244000000.0 0.390317 -0.293962
1245000000.0 0.389095 -0.294332
1246000000.0 0.387822 -0.294693
1247000000.0 0.38665 -0.295108
1248000000.0 0.385377 -0.295567
1249000000.0 0.384254 -0.296048
1250000000.0 0.38303 -0.296582
1251000000.0 0.381787 -0.297094
1252000000.0 0.38061 -0.297697
1253000000.0 0.379448 -0.298292
1254000000.0 0.378299 -0.298881
1255000000.0 0.377216 -0.29958
1256000000.0 0.376117 -0.300174
1257000000.0 0.374934 -0.300905
1258000000.0 0.373836 -0.301576
1259000000.0 0.372801 -0.302406
1260000000.0 0.3717 -0.303168
1261000000.0 0.370614 -0.303924
1262000000.0 0.369606 -0.304767
1263000000.0 0.368593 -0.305679
1264000000.0 0.367597 -0.306496
1265000000.0 0.366593 -0.307376
1266000000.0 0.365668 -0.308337
1267000000.0 0.364732 -0.30932
1268000000.0 0.363839 -0.31033
1269000000.0 0.362973 -0.311241
1270000000.0 0.362064 -0.312353
1271000000.0 0.361278 -0.313423
1272000000.0 0.360382 -0.314373
1273000000.0 0.359558 -0.315505
1274000000.0 0.358856 -0.31662
1275000000.0 0.358121 -0.317718
1276000000.0 0.357388 -0.31888
1277000000.0 0.356741 -0.320041
1278000000.0 0.356045 -0.321188
1279000000.0 0.355459 -0.322267
1280000000.0 0.354768 -0.323533
1281000000.0 0.354242 -0.324755
1282000000.0 0.353699 -0.325958
1283000000.0 0.353172 -0.32718
1284000000.0 0.352756 -0.32848
1285000000.0 0.352223 -0.329666
1286000000.0 0.351816 -0.330871
1287000000.0 0.35147 -0.332146
1288000000.0 0.351016 -0.333476
1289000000.0 0.350761 -0.334789
1290000000.0 0.350399 -0.336037
1291000000.0 0.35024 -0.337318
1292000000.0 0.349957 -0.338568
1293000000.0 0.349715 -0.339909
1294000000.0 0.3496 -0.341254
1295000000.0 0.349437 -0.342542
1296000000.0 0.349345 -0.343908
1297000000.0 0.3494 -0.345145
1298000000.0 0.349307 -0.346478
1299000000.0 0.349366 -0.34778
1300000000.0 0.349354 -0.34911
1301000000.0 0.34946 -0.350319
1302000000.0 0.349526 -0.351661
1303000000.0 0.349727 -0.352962
1304000000.0 0.349933 -0.354188
1305000000.0 0.350117 -0.355481
1306000000.0 0.350395 -0.356773
1307000000.0 0.350675 -0.357975
1308000000.0 0.350945 -0.359153
1309000000.0 0.351292 -0.360444
1310000000.0 0.35173 -0.361592
1311000000.0 0.352113 -0.362833
1312000000.0 0.352531 -0.363982
1313000000.0 0.353026 -0.365117
1314000000.0 0.353557 -0.366094
1315000000.0 0.354022 -0.367314
1316000000.0 0.354518 -0.368394
1317000000.0 0.355224 -0.369441
1318000000.0 0.355837 -0.370469
1319000000.0 0.356443 -0.371484
1320000000.0 0.357112 -0.372433
1321000000.0 0.357854 -0.373343
1322000000.0 0.358634 -0.374273
1323000000.0 0.35928 -0.375197
1324000000.0 0.360058 -0.376004
1325000000.0 0.360874 -0.376853
1326000000.0 0.361686 -0.377666
1327000000.0 0.362505 -0.378511
1328000000.0 0.363389 -0.379246
1329000000.0 0.364238 -0.37996
1330000000.0 0.36521 -0.38061
1331000000.0 0.366008 -0.381303
1332000000.0 0.366985 -0.381889
1333000000.0 0.367879 -0.38245
1334000000.0 0.368851 -0.383078
1335000000.0 0.369757 -0.383604
1336000000.0 0.370725 -0.384053
1337000000.0 0.37178 -0.384546
1338000000.0 0.372781 -0.384926
1339000000.0 0.373772 -0.385285
1340000000.0 0.374768 -0.385785
1341000000.0 0.375747 -0.385991
1342000000.0 0.376766 -0.386374
1343000000.0 0.377815 -0.386646
1344000000.0 0.37878 -0.386792
1345000000.0 0.379798 -0.387019
1346000000.0 0.380829 -0.387266
1347000000.0 0.381742 -0.387343
1348000000.0 0.382819 -0.387359
1349000000.0 0.383752 -0.387412
1350000000.0 0.384873 -0.387462
1351000000.0 0.385803 -0.387433
1352000000.0 0.386838 -0.387395
1353000000.0 0.387815 -0.387388
1354000000.0 0.388782 -0.38716
1355000000.0 0.389871 -0.387007
1356000000.0 0.390729 -0.386818
1357000000.0 0.391752 -0.386566
1358000000.0 0.392722 -0.386415
1359000000.0 0.393573 -0.386029
1360000000.0 0.394523 -0.385655
1361000000.0 0.395381 -0.38538
1362000000.0 0.39627 -0.384976
1363000000.0 0.3971 -0.384506
1364000000.0 0.398012 -0.384078
1365000000.0 0.398793 -0.383565
1366000000.0 0.399619 -0.383101
1367000000.0 0.400327 -0.382494
1368000000.0 0.401122 -0.381993
1369000000.0 0.401858 -0.381407
1370000000.0 0.402631 -0.380886
1371000000.0 0.40331 -0.380144
1372000000.0 0.403925 -0.379538
1373000000.0 0.404551 -0.378771
1374000000.0 0.405121 -0.378093
1375000000.0 0.405675 -0.377413
1376000000.0 0.406202 -0.376659
1377000000.0 0.406814 -0.375876
1378000000.0 0.407341 -0.375233
1379000000.0 0.407758 -0.374384
1380000000.0 0.40812 -0.373566
1381000000.0 0.40863 -0.372769
1382000000.0 0.408937 -0.371968
1383000000.0 0.409337 -0.371142
1384000000.0 0.409648 -0.370367
1385000000.0 0.40997 -0.369449
1386000000.0 0.41027 -0.368646
1387000000.0 0.410398 -0.367689
1388000000.0 0.410744 -0.36682
1389000000.0 0.410822 -0.365932
1390000000.0 0.411044 -0.365057
1391000000.0 0.411044 -0.364192
1392000000.0 0.411259 -0.363259
1393000000.0 0.411223 -0.362369
1394000000.0 0.411254 -0.361396
1395000000.0 0.411336 -0.360583
1396000000.0 0.411205 -0.359653
1397000000.0 0.411171 -0.35873
1398000000.0 0.41111 -0.35781
1399000000.0 0.410979 -0.35689
1400000000.0 0.410841 -0.355946
1401000000.0 0.410649 -0.355112
1402000000.0 0.410409 -0.354184
1403000000.0 0.410115 -0.353292
1404000000.0 0.409884 -0.352373
1405000000.0 0.409505 -0.351455
1406000000.0 0.409189 -0.350598
1407000000.0 0.408848 -0.349735
1408000000.0 0.408419 -0.348895
1409000000.0 0.40796 -0.347992
1410000000.0 0.407493 -0.347224
1411000000.0 0.407067 -0.346302
1412000000.0 0.406532 -0.345467
1413000000.0 0.405962 -0.344731
1414000000.0 0.405449 -0.343952
1415000000.0 0.404864 -0.343087
1416000000.0 0.404221 -0.342416
1417000000.0 0.403573 -0.34165
1418000000.0 0.40297 -0.340913
1419000000.0 0.402215 -0.3402
1420000000.0 0.401505 -0.339552
1421000000.0 0.400763 -0.338909
1422000000.0 0.399962 -0.338297
1423000000.0 0.39925 -0.337745
1424000000.0 0.398425 -0.337164
1425000000.0 0.397623 -0.336505
1426000000.0 0.3968 -0.3361
1427000000.0 0.395918 -0.335534
1428000000.0 0.39506 -0.335051
1429000000.0 0.394257 -0.334625
1430000000.0 0.393223 -0.334154
1431000000.0 0.392458 -0.333801
1432000000.0 0.391509 -0.333553
1433000000.0 0.390544 -0.333167
1434000000.0 0.389577 -0.33289
1435000000.0 0.388579 -0.332543
1436000000.0 0.387636 -0.332362
1437000000.0 0.386664 -0.332091
1438000000.0 0.385643 -0.33181
1439000000.0 0.384649 -0.331746
1440000000.0 0.383568 -0.331565
1441000000.0 0.382512 -0.331438
1442000000.0 0.381525 -0.331376
1443000000.0 0.380365 -0.331253
1444000000.0 0.37945 -0.331268
1445000000.0 0.378304 -0.331261
1446000000.0 0.377197 -0.331338
1447000000.0 0.376142 -0.331324
1448000000.0 0.375064 -0.331509
1449000000.0 0.373883 -0.331561
1450000000.0 0.372807 -0.331781
1451000000.0 0.371674 -0.331924
1452000000.0 0.370599 -0.332109
1453000000.0 0.369503 -0.332417
1454000000.0 0.368343 -0.332745
1455000000.0 0.367227 -0.333016
1456000000.0 0.366207 -0.333519
1457000000.0 0.365012 -0.333822
1458000000.0 0.363962 -0.334302
1459000000.0 0.362825 -0.334704
1460000000.0 0.361757 -0.335262
1461000000.0 0.36072 -0.335827
1462000000.0 0.359599 -0.336459
1463000000.0 0.358521 -0.337051
1464000000.0 0.357485 -0.337644
1465000000.0 0.356436 -0.338283
1466000000.0 0.355483 -0.338975
1467000000.0 0.35439 -0.33975
1468000000.0 0.353385 -0.340505
1469000000.0 0.352416 -0.341385
1470000000.0 0.351496 -0.342147
1471000000.0 0.350642 -0.343033
1472000000.0 0.349628 -0.343894
1473000000.0 0.348805 -0.344873
1474000000.0 0.347985 -0.345833
1475000000.0 0.347091 -0.346794
1476000000.0 0.346241 -0.347762
1477000000.0 0.345516 -0.3488
1478000000.0 0.344688 -0.349822
1479000000.0 0.34398 -0.350849
1480000000.0 0.343272 -0.351925
1481000000.0 0.342633 -0.353105
1482000000.0 0.341953 -0.354172
1483000000.0 0.341329 -0.355446
1484000000.0 0.340857 -0.356554
1485000000.0 0.340262 -0.357703
1486000000.0 0.339738 -0.358843
1487000000.0 0.339285 -0.360093
1488000000.0 0.338789 -0.361342
1489000000.0 0.338422 -0.362578
1490000000.0 0.338048 -0.363831
1491000000.0 0.337694 -0.365053
1492000000.0 0.337378 -0.366321
1493000000.0 0.337118 -0.367583
1494000000.0 0.33682 -0.368907
1495000000.0 0.336651 -0.370248
1496000000.0 0.336469 -0.371552
1497000000.0 0.336274 -0.372828
1498000000.0 0.336137 -0.374184
1499000000.0 0.336044 -0.3755
1500000000.0 0.335958 -0.376863
1501000000.0 0.335892 -0.378252
1502000000.0 0.335895 -0.37963
1503000000.0 0.335902 -0.380972
1504000000.0 0.336052 -0.382367
1505000000.0 0.336214 -0.383791
1506000000.0 0.336366 -0.385068
1507000000.0 0.336564 -0.386486
1508000000.0 0.336874 -0.387858
1509000000.0 0.337142 -0.389228
1510000000.0 0.337558 -0.390614
1511000000.0 0.337883 -0.391868
1512000000.0 0.338306 -0.393224
1513000000.0 0.338758 -0.394569
1514000000.0 0.339242 -0.395846
1515000000.0 0.339781 -0.397184
1516000000.0 0.34036 -0.398427
1517000000.0 0.340991 -0.399608
1518000000.0 0.341721 -0.400908
1519000000.0 0.342361 -0.40202
1520000000.0 0.343066 -0.403298
1521000000.0 0.343796 -0.404483
1522000000.0 0.344665 -0.405573
1523000000.0 0.345526 -0.406699
1524000000.0 0.346493 -0.407933
1525000000.0 0.347421 -0.408902
1526000000.0 0.348297 -0.409898
1527000000.0 0.349354 -0.411065
1528000000.0 0.350318 -0.411945
1529000000.0 0.351279 -0.412961
1530000000.0 0.352401 -0.413866
1531000000.0 0.353472 -0.414801
1532000000.0 0.354555 -0.415663
1533000000.0 0.355742 -0.41644
1534000000.0 0.35689 -0.417167
1535000000.0 0.358093 -0.417926
1536000000.0 0.359284 -0.418643
1537000000.0 0.360524 -0.41926
1538000000.0 0.361789 -0.420024
1539000000.0 0.363046 -0.42051
1540000000.0 0.364335 -0.421156
1541000000.0 0.365657 -0.421601
1542000000.0 0.367001 -0.422091
1543000000.0 0.368354 -0.422578
1544000000.0 0.369645 -0.42295
1545000000.0 0.371 -0.423326
1546000000.0 0.372295 -0.423678
1547000000.0 0.373641 -0.423865
1548000000.0 0.375065 -0.424201
1549000000.0 0.376453 -0.424417
1550000000.0 0.377832 -0.42458
1551000000.0 0.379194 -0.424614
1552000000.0 0.380712 -0.424785
1553000000.0 0.382037 -0.42481
1554000000.0 0.383444 -0.424831
1555000000.0 0.384758 -0.424715
1556000000.0 0.38615 -0.424641
1557000000.0 0.387537 -0.42459
1558000000.0 0.389018 -0.424471
1559000000.0 0.390301 -0.424308
1560000000.0 0.391771 -0.42407
1561000000.0 0.393135 -0.423757
1562000000.0 0.394567 -0.423517
1563000000.0 0.395808 -0.423024
1564000000.0 0.397187 -0.422681
1565000000.0 0.398509 -0.422249
1566000000.0 0.399852 -0.421787
1567000000.0 0.401177 -0.421209
1568000000.0 0.402501 -0.420676
1569000000.0 0.403699 -0.419997
1570000000.0 0.404992 -0.419414
1571000000.0 0.406221 -0.418744
1572000000.0 0.407486 -0.417899
1573000000.0 0.408612 -0.417208
1574000000.0 0.409764 -0.416381
1575000000.0 0.410903 -0.415582
1576000000.0 0.41212 -0.414628
1577000000.0 0.413161 -0.413731
1578000000.0 0.41418 -0.412793
1579000000.0 0.415188 -0.411897
1580000000.0 0.416154 -0.410822
1581000000.0 0.417105 -0.409849
1582000000.0 0.417996 -0.408785
1583000000.0 0.418946 -0.407782
1584000000.0 0.419741 -0.406749
1585000000.0 0.420475 -0.405661
1586000000.0 0.421384 -0.404472
1587000000.0 0.422144 -0.403394
1588000000.0 0.422862 -0.402277
1589000000.0 0.423572 -0.401148
1590000000.0 0.424279 -0.399904
1591000000.0 0.424914 -0.39877
1592000000.0 0.42553 -0.39758
1593000000.0 0.426043 -0.396344
1594000000.0 0.426645 -0.395088
1595000000.0 0.427171 -0.393868
1596000000.0 0.427686 -0.392588
1597000000.0 0.428146 -0.391356
1598000000.0 0.428578 -0.390032
1599000000.0 0.42894 -0.388617
1600000000.0 0.429239 -0.387324
1601000000.0 0.429482 -0.386057
1602000000.0 0.429719 -0.384697
1603000000.0 0.430024 -0.383525
1604000000.0 0.430111 -0.38209
1605000000.0 0.430393 -0.38068
1606000000.0 0.430337 -0.379342
1607000000.0 0.43043 -0.377905
1608000000.0 0.430513 -0.376661
1609000000.0 0.430504 -0.37528
1610000000.0 0.430421 -0.373824
1611000000.0 0.430378 -0.372484
1612000000.0 0.430195 -0.37116
1613000000.0 0.430048 -0.369836
1614000000.0 0.429836 -0.368446
1615000000.0 0.429554 -0.367171
1616000000.0 0.429393 -0.365799
1617000000.0 0.429026 -0.364536
1618000000.0 0.4287 -0.363237
1619000000.0 0.428332 -0.36196
1620000000.0 0.427855 -0.360662
1621000000.0 0.427526 -0.359405
1622000000.0 0.427 -0.358206
1623000000.0 0.426436 -0.356914
1624000000.0 0.426024 -0.355704
1625000000.0 0.425345 -0.354468
1626000000.0 0.424806 -0.353381
1627000000.0 0.424128 -0.352128
1628000000.0 0.423424 -0.351006
1629000000.0 0.422801 -0.34988
1630000000.0 0.422088 -0.348793
1631000000.0 0.421328 -0.347735
1632000000.0 0.42053 -0.346707
1633000000.0 0.419676 -0.345637
1634000000.0 0.418804 -0.344682
1635000000.0 0.417946 -0.34363900000000003
1636000000.0 0.417111 -0.342773
1637000000.0 0.416172 -0.341812
1638000000.0 0.415209 -0.340917
1639000000.0 0.414243 -0.340073
1640000000.0 0.413262 -0.33923
1641000000.0 0.412205 -0.338378
1642000000.0 0.411184 -0.337657
1643000000.0 0.410191 -0.336956
1644000000.0 0.409102 -0.336197
1645000000.0 0.40798 -0.335515
1646000000.0 0.406989 -0.334847
1647000000.0 0.405861 -0.33421
1648000000.0 0.404707 -0.333633
1649000000.0 0.403586 -0.333037
1650000000.0 0.40247 -0.332573
1651000000.0 0.401324 -0.33206
1652000000.0 0.400096 -0.331557
1653000000.0 0.398914 -0.331108
1654000000.0 0.397744 -0.330757
1655000000.0 0.396512 -0.33048
1656000000.0 0.395212 -0.330077
1657000000.0 0.394091 -0.329839
1658000000.0 0.392757 -0.32957
1659000000.0 0.391437 -0.329374
1660000000.0 0.390211 -0.329132
1661000000.0 0.388994 -0.328989
1662000000.0 0.387618 -0.328867
1663000000.0 0.386398 -0.328778
1664000000.0 0.385076 -0.328767
1665000000.0 0.383829 -0.328749
1666000000.0 0.382538 -0.328743
1667000000.0 0.381302 -0.328806
1668000000.0 0.379983 -0.32893
1669000000.0 0.378656 -0.329013
1670000000.0 0.377411 -0.329284
1671000000.0 0.376111 -0.329475
1672000000.0 0.374879 -0.329727
1673000000.0 0.37363 -0.33006
1674000000.0 0.372438 -0.330338
1675000000.0 0.371127 -0.33075
1676000000.0 0.369991 -0.331073
1677000000.0 0.368748 -0.331566
1678000000.0 0.367597 -0.332033
1679000000.0 0.36636 -0.33249
1680000000.0 0.365219 -0.333113
1681000000.0 0.36412 -0.333758
1682000000.0 0.362921 -0.334234
1683000000.0 0.361864 -0.334937
1684000000.0 0.360804 -0.335697
1685000000.0 0.35969 -0.336371
1686000000.0 0.35866 -0.337056
1687000000.0 0.357684 -0.337943
1688000000.0 0.356688 -0.338684
1689000000.0 0.355679 -0.339455
1690000000.0 0.354765 -0.340413
1691000000.0 0.353839 -0.341284
1692000000.0 0.352992 -0.342241
1693000000.0 0.352184 -0.343191
1694000000.0 0.351416 -0.344199
1695000000.0 0.350671 -0.34513
1696000000.0 0.350001 -0.346136
1697000000.0 0.349227 -0.347176
1698000000.0 0.348447 -0.348127
1699000000.0 0.347916 -0.349312
1700000000.0 0.347355 -0.350241
1701000000.0 0.346793 -0.351504
1702000000.0 0.346262 -0.352638
1703000000.0 0.345799 -0.35359
1704000000.0 0.345294 -0.354738
1705000000.0 0.344956 -0.35595
1706000000.0 0.344571 -0.357108
1707000000.0 0.34426 -0.358323
1708000000.0 0.34394 -0.359564
1709000000.0 0.343579 -0.360699
1710000000.0 0.343367 -0.361945
1711000000.0 0.343205 -0.363175
1712000000.0 0.343104 -0.364288
1713000000.0 0.342876 -0.365667
1714000000.0 0.342881 -0.366949
1715000000.0 0.342809 -0.368151
1716000000.0 0.342759 -0.369464
1717000000.0 0.342861 -0.370728
1718000000.0 0.342873 -0.371988
1719000000.0 0.343073 -0.373274
1720000000.0 0.343208 -0.374626
1721000000.0 0.343453 -0.375826
1722000000.0 0.343705 -0.377119
1723000000.0 0.343933 -0.378431
1724000000.0 0.344323 -0.379589
1725000000.0 0.344755 -0.380859
1726000000.0 0.345099 -0.382166
1727000000.0 0.345606 -0.383357
1728000000.0 0.346117 -0.384515
1729000000.0 0.346612 -0.385646
1730000000.0 0.347266 -0.386947
1731000000.0 0.347889 -0.388032
1732000000.0 0.348594 -0.389135
1733000000.0 0.349283 -0.390227
1734000000.0 0.350045 -0.391328
1735000000.0 0.35079 -0.392356
1736000000.0 0.351642 -0.39343
1737000000.0 0.352538 -0.394264
1738000000.0 0.35344 -0.395335
1739000000.0 0.354432 -0.39626
1740000000.0 0.355319 -0.397103
1741000000.0 0.356312 -0.397949
1742000000.0 0.357375 -0.398755
1743000000.0 0.358436 -0.399587
1744000000.0 0.359576 -0.400359
1745000000.0 0.360621 -0.401075
1746000000.0 0.361707 -0.401707
1747000000.0 0.362898 -0.402425
1748000000.0 0.364064 -0.402925
1749000000.0 0.365297 -0.403585
1750000000.0 0.366367 -0.404174
1751000000.0 0.367644 -0.404628
1752000000.0 0.368814 -0.405167
1753000000.0 0.370108 -0.405473
1754000000.0 0.371424 -0.405971
1755000000.0 0.372674 -0.406193
1756000000.0 0.373997 -0.406549
1757000000.0 0.375333 -0.406751
1758000000.0 0.376745 -0.407036
1759000000.0 0.37806 -0.407233
1760000000.0 0.379343 -0.407366
1761000000.0 0.38084 -0.407487
1762000000.0 0.382313 -0.407445
1763000000.0 0.383562 -0.407384
1764000000.0 0.385021 -0.407346
1765000000.0 0.386427 -0.407221
1766000000.0 0.387872 -0.407147
1767000000.0 0.389258 -0.406863
1768000000.0 0.390709 -0.406603
1769000000.0 0.392172 -0.406286
1770000000.0 0.393497 -0.405895
1771000000.0 0.394984 -0.405539
1772000000.0 0.396339 -0.404947
1773000000.0 0.397674 -0.404418
1774000000.0 0.399076 -0.403778
1775000000.0 0.400521 -0.403312
1776000000.0 0.401681 -0.402571
1777000000.0 0.402984 -0.401896
1778000000.0 0.404297 -0.401129
1779000000.0 0.405505 -0.400353
1780000000.0 0.406796 -0.399538
1781000000.0 0.408113 -0.398741
1782000000.0 0.409121 -0.397827
1783000000.0 0.410297 -0.397019
1784000000.0 0.411423 -0.395986
1785000000.0 0.412532 -0.39511
1786000000.0 0.413633 -0.394132
1787000000.0 0.414622 -0.393033
1788000000.0 0.415681 -0.392011
1789000000.0 0.416707 -0.390888
1790000000.0 0.417722 -0.389818
1791000000.0 0.418703 -0.388547
1792000000.0 0.419661 -0.387381
1793000000.0 0.420457 -0.386203
1794000000.0 0.421473 -0.384878
1795000000.0 0.422357 -0.38366
1796000000.0 0.423052 -0.382248
1797000000.0 0.423791 -0.38083
1798000000.0 0.424556 -0.379325
1799000000.0 0.425184 -0.378075
1800000000.0 0.425807 -0.376584
1801000000.0 0.426452 -0.375131
1802000000.0 0.427031 -0.373618
1803000000.0 0.427477 -0.37203
1804000000.0 0.427973 -0.370603
1805000000.0 0.428302 -0.369039
1806000000.0 0.428698 -0.367541
1807000000.0 0.429065 -0.366037
1808000000.0 0.429381 -0.36446
1809000000.0 0.429666 -0.362893
1810000000.0 0.429763 -0.361327
1811000000.0 0.430128 -0.359802
1812000000.0 0.430187 -0.358173
1813000000.0 0.430281 -0.356608
1814000000.0 0.43041 -0.355069
1815000000.0 0.430365 -0.353445
1816000000.0 0.430395 -0.351806
1817000000.0 0.430407 -0.350131
1818000000.0 0.430331 -0.34863
1819000000.0 0.430121 -0.346925
1820000000.0 0.429861 -0.345317
1821000000.0 0.429657 -0.343683
1822000000.0 0.429484 -0.342051
1823000000.0 0.429187 -0.340378
1824000000.0 0.428886 -0.338806
1825000000.0 0.428428 -0.337155
1826000000.0 0.428062 -0.335583
1827000000.0 0.427504 -0.333949
1828000000.0 0.427004 -0.332424
1829000000.0 0.426498 -0.330728
1830000000.0 0.425878 -0.329283
1831000000.0 0.425234 -0.327654
1832000000.0 0.424544 -0.326128
1833000000.0 0.423775 -0.32454
1834000000.0 0.422988 -0.323144
1835000000.0 0.422198 -0.32165
1836000000.0 0.421318 -0.320198
1837000000.0 0.420498 -0.31877
1838000000.0 0.419557 -0.317354
1839000000.0 0.41851 -0.315942
1840000000.0 0.41752 -0.314654
1841000000.0 0.4165 -0.313244
1842000000.0 0.415466 -0.311933
1843000000.0 0.414412 -0.310726
1844000000.0 0.413253 -0.309394
1845000000.0 0.412079 -0.308148
1846000000.0 0.410935 -0.30694
1847000000.0 0.409668 -0.305811
1848000000.0 0.408439 -0.304671
1849000000.0 0.407224 -0.303524
1850000000.0 0.405947 -0.302437
1851000000.0 0.404674 -0.301321
1852000000.0 0.403345 -0.300363
1853000000.0 0.401959 -0.29941
1854000000.0 0.400657 -0.298427
1855000000.0 0.39925 -0.297539
1856000000.0 0.397815 -0.296539
1857000000.0 0.396427 -0.295689
1858000000.0 0.394941 -0.294896
1859000000.0 0.39342 -0.294006
1860000000.0 0.391921 -0.293262
1861000000.0 0.390501 -0.29256
1862000000.0 0.389091 -0.291851
1863000000.0 0.387356 -0.291055
1864000000.0 0.385937 -0.290511
1865000000.0 0.384352 -0.289817
1866000000.0 0.382724 -0.28929
1867000000.0 0.381064 -0.288747
1868000000.0 0.379344 -0.288098
1869000000.0 0.377857 -0.287696
1870000000.0 0.376159 -0.287244
1871000000.0 0.374483 -0.287051
1872000000.0 0.372767 -0.286762
1873000000.0 0.371027 -0.28635
1874000000.0 0.369373 -0.286142
1875000000.0 0.367559 -0.285916
1876000000.0 0.365889 -0.285812
1877000000.0 0.364099 -0.285689
1878000000.0 0.36245 -0.285638
1879000000.0 0.360785 -0.285734
1880000000.0 0.359136 -0.285778
1881000000.0 0.357457 -0.285807
1882000000.0 0.355772 -0.285989
1883000000.0 0.354054 -0.286076
1884000000.0 0.352418 -0.286239
1885000000.0 0.350727 -0.286451
1886000000.0 0.349126 -0.286785
1887000000.0 0.347438 -0.287061
1888000000.0 0.345847 -0.287346
1889000000.0 0.34419 -0.287738
1890000000.0 0.342723 -0.288154
1891000000.0 0.340936 -0.28858
1892000000.0 0.339395 -0.289086
1893000000.0 0.337763 -0.289675
1894000000.0 0.33622 -0.290293
1895000000.0 0.334684 -0.290761
1896000000.0 0.333165 -0.291407
1897000000.0 0.331625 -0.292164
1898000000.0 0.33015 -0.293001
1899000000.0 0.328666 -0.293823
1900000000.0 0.327156 -0.294675
1901000000.0 0.325744 -0.295502
1902000000.0 0.324328 -0.296491
1903000000.0 0.323048 -0.297487
1904000000.0 0.321624 -0.298442
1905000000.0 0.320274 -0.299454
1906000000.0 0.319049 -0.300519
1907000000.0 0.317829 -0.301565
1908000000.0 0.316618 -0.302686
1909000000.0 0.31544 -0.303812
1910000000.0 0.314282 -0.305059
1911000000.0 0.313197 -0.306209
1912000000.0 0.312142 -0.307422
1913000000.0 0.311042 -0.308603
1914000000.0 0.310111 -0.309915
1915000000.0 0.309131 -0.311194
1916000000.0 0.308209 -0.31253
1917000000.0 0.307248 -0.313858
1918000000.0 0.306411 -0.315222
1919000000.0 0.305655 -0.316645
1920000000.0 0.304851 -0.318061
1921000000.0 0.304123 -0.319412
1922000000.0 0.303517 -0.320927
1923000000.0 0.302892 -0.322277
1924000000.0 0.302342 -0.323824
1925000000.0 0.301753 -0.32522
1926000000.0 0.301351 -0.326737
1927000000.0 0.300821 -0.328229
1928000000.0 0.300501 -0.329714
1929000000.0 0.300141 -0.331257
1930000000.0 0.299923 -0.332739
1931000000.0 0.299583 -0.334226
1932000000.0 0.299382 -0.335729
1933000000.0 0.299254 -0.337194
1934000000.0 0.299169 -0.33873
1935000000.0 0.299052 -0.340161
1936000000.0 0.29913 -0.341696
1937000000.0 0.299119 -0.343245
1938000000.0 0.299275 -0.34476
1939000000.0 0.299371 -0.346143
1940000000.0 0.299653 -0.347573
1941000000.0 0.29987 -0.349031
1942000000.0 0.300135 -0.350462
1943000000.0 0.30042 -0.351893
1944000000.0 0.300832 -0.353326
1945000000.0 0.301219 -0.354649
1946000000.0 0.301702 -0.35609
1947000000.0 0.302189 -0.357428
1948000000.0 0.302817 -0.358699
1949000000.0 0.303387 -0.359996
1950000000.0 0.303951 -0.361257
1951000000.0 0.304655 -0.362553
1952000000.0 0.305432 -0.363777
1953000000.0 0.306079 -0.364987
1954000000.0 0.306863 -0.366043
1955000000.0 0.307665 -0.367206
1956000000.0 0.308537 -0.368382
1957000000.0 0.309485 -0.369442
1958000000.0 0.310383 -0.370485
1959000000.0 0.31132 -0.371453
1960000000.0 0.312242 -0.372435
1961000000.0 0.313261 -0.373278
1962000000.0 0.314372 -0.374169
1963000000.0 0.315392 -0.375125
1964000000.0 0.316543 -0.375883
1965000000.0 0.317694 -0.376674
1966000000.0 0.31885 -0.377386
1967000000.0 0.319998 -0.378006
1968000000.0 0.321254 -0.378764
1969000000.0 0.322354 -0.379261
1970000000.0 0.323593 -0.379819
1971000000.0 0.324869 -0.380272
1972000000.0 0.326181 -0.38071
1973000000.0 0.327405 -0.381083
1974000000.0 0.328735 -0.381479
1975000000.0 0.330071 -0.381714
1976000000.0 0.331411 -0.381902
1977000000.0 0.332712 -0.382068
1978000000.0 0.334029 -0.382333
1979000000.0 0.335339 -0.382374
1980000000.0 0.336783 -0.382366
1981000000.0 0.338053 -0.382377
1982000000.0 0.339376 -0.382292
1983000000.0 0.34075 -0.382204
1984000000.0 0.341988 -0.381987
1985000000.0 0.343353 -0.381846
1986000000.0 0.344663 -0.381568
1987000000.0 0.345898 -0.381209
1988000000.0 0.347291 -0.380869
1989000000.0 0.348469 -0.380472
1990000000.0 0.34977 -0.380029
1991000000.0 0.351059 -0.379562
1992000000.0 0.352244 -0.379028
1993000000.0 0.353442 -0.378393
1994000000.0 0.35457 -0.377723
1995000000.0 0.355842 -0.377104
1996000000.0 0.356911 -0.376368
1997000000.0 0.357981 -0.375621
1998000000.0 0.359048 -0.374867
1999000000.0 0.36018 -0.374079
2000000000.0 0.361151 -0.373178
