! Created with skrf 1.12.0 (http://scikit-rf.org).
# Hz S RI R 50.0 
!freq ReS11 ImS11
!
100000000.0 0.995165 -0.029285
105000000.0 0.994605 -0.030573
110000000.0 0.994074 -0.03201
115000000.0 0.99369 -0.033346
120000000.0 0.992965 -0.034593
125000000.0 0.992475 -0.035949
130000000.0 0.992011 -0.037396
135000000.0 0.991402 -0.038561
140000000.0 0.990742 -0.03972
145000000.0 0.990222 -0.041175
150000000.0 0.989549 -0.042243
155000000.0 0.988882 -0.043487
160000000.0 0.988271 -0.044648
165000000.0 0.987713 -0.045934
170000000.0 0.98711 -0.046902
175000000.0 0.986464 -0.048192
180000000.0 0.985658 -0.049106
185000000.0 0.984926 -0.050274
190000000.0 0.984279 -0.051467
195000000.0 0.983588 -0.052545
200000000.0 0.98278 -0.053523
205000000.0 0.981991 -0.054501
210000000.0 0.981295 -0.055651
215000000.0 0.98047 -0.056544
220000000.0 0.979659 -0.057567
225000000.0 0.978821 -0.058426
230000000.0 0.978037 -0.05946
235000000.0 0.97749 -0.060426
240000000.0 0.97654 -0.061271
245000000.0 0.975874 -0.062075
250000000.0 0.975131 -0.063013
255000000.0 0.974297 -0.063789
260000000.0 0.973575 -0.064667
265000000.0 0.972733 -0.06545
270000000.0 0.971849 -0.066244
275000000.0 0.97105 -0.067038
280000000.0 0.970367 -0.067827
285000000.0 0.969561 -0.068514
290000000.0 0.968636 -0.069279
295000000.0 0.967972 -0.069887
300000000.0 0.9672 -0.070741
305000000.0 0.966479 -0.071323
310000000.0 0.965617 -0.072079
315000000.0 0.96487 -0.072575
320000000.0 0.964089 -0.073231
325000000.0 0.963234 -0.073887
330000000.0 0.96252 -0.074392
335000000.0 0.961618 -0.075053
340000000.0 0.960966 -0.075663
345000000.0 0.960169 -0.0761
350000000.0 0.959565 -0.07668
355000000.0 0.958694 -0.077164
360000000.0 0.957935 -0.077774
365000000.0 0.957151 -0.078145
370000000.0 0.956415 -0.0788
375000000.0 0.955648 -0.079238
380000000.0 0.955051 -0.079629
385000000.0 0.954311 -0.079966
390000000.0 0.953676 -0.080551
395000000.0 0.952894 -0.080884
400000000.0 0.952136 -0.081364
405000000.0 0.951419 -0.08182
410000000.0 0.950696 -0.082183
415000000.0 0.950079 -0.082603
420000000.0 0.949422 -0.082892
425000000.0 0.948709 -0.083254
430000000.0 0.947985 -0.083661
435000000.0 0.947506 -0.083891
440000000.0 0.946779 -0.084291
445000000.0 0.946083 -0.084613
450000000.0 0.945456 -0.08498
455000000.0 0.944857 -0.085292
460000000.0 0.944238 -0.085507
465000000.0 0.943645 -0.085805
470000000.0 0.943029 -0.086182
475000000.0 0.942537 -0.086437
480000000.0 0.941833 -0.086669
485000000.0 0.941087 -0.086869
490000000.0 0.940571 -0.087186
495000000.0 0.940002 -0.087383
500000000.0 0.939429 -0.087536
505000000.0 0.938879 -0.087825
510000000.0 0.938405 -0.087921
515000000.0 0.937682 -0.088236
520000000.0 0.937196 -0.088427
525000000.0 0.936717 -0.08878
530000000.0 0.936219 -0.088848
535000000.0 0.935608 -0.088953
540000000.0 0.935151 -0.0892
545000000.0 0.934564 -0.089408
550000000.0 0.934114 -0.089615
555000000.0 0.933628 -0.089745
560000000.0 0.933065 -0.089904
565000000.0 0.932686 -0.09008
570000000.0 0.932116 -0.090208
575000000.0 0.931704 -0.090326
580000000.0 0.931174 -0.090581
585000000.0 0.93077 -0.090657
590000000.0 0.93031 -0.090718
595000000.0 0.929805 -0.090887
600000000.0 0.929365 -0.090939
605000000.0 0.928945 -0.091149
610000000.0 0.928481 -0.091392
615000000.0 0.928028 -0.091333
620000000.0 0.927757 -0.091449
625000000.0 0.927263 -0.091558
630000000.0 0.926876 -0.091583
635000000.0 0.926533 -0.091761
640000000.0 0.926013 -0.091798
645000000.0 0.925525 -0.092027
650000000.0 0.92521 -0.092043
655000000.0 0.924866 -0.092058
660000000.0 0.924472 -0.092197
665000000.0 0.924162 -0.092286
670000000.0 0.923762 -0.092287
675000000.0 0.923395 -0.092391
680000000.0 0.922906 -0.09245
685000000.0 0.922551 -0.092508
690000000.0 0.9222 -0.092619
695000000.0 0.921882 -0.092622
700000000.0 0.921577 -0.092646
705000000.0 0.921193 -0.092759
710000000.0 0.920985 -0.09285
715000000.0 0.920543 -0.092842
720000000.0 0.920269 -0.092986
725000000.0 0.919858 -0.092973
730000000.0 0.919575 -0.092891
735000000.0 0.919256 -0.093059
740000000.0 0.918827 -0.093039
745000000.0 0.918612 -0.09308
750000000.0 0.918297 -0.093279
755000000.0 0.917964 -0.093215
760000000.0 0.917719 -0.093256
765000000.0 0.91742 -0.09343
770000000.0 0.917107 -0.093396
775000000.0 0.916905 -0.093482
780000000.0 0.916568 -0.093432
785000000.0 0.916277 -0.093672
790000000.0 0.915983 -0.093512
795000000.0 0.915651 -0.093586
800000000.0 0.915421 -0.093586
805000000.0 0.915144 -0.093668
810000000.0 0.914888 -0.0936
815000000.0 0.914628 -0.093636
820000000.0 0.91439 -0.093736
825000000.0 0.914053 -0.093734
830000000.0 0.913762 -0.093834
835000000.0 0.913638 -0.093703
840000000.0 0.913413 -0.093869
845000000.0 0.913239 -0.093906
850000000.0 0.912802 -0.093844
855000000.0 0.912669 -0.093979
860000000.0 0.912408 -0.093978
865000000.0 0.912158 -0.094031
870000000.0 0.911955 -0.094087
875000000.0 0.911754 -0.094181
880000000.0 0.911588 -0.094102
885000000.0 0.911252 -0.094202
890000000.0 0.910998 -0.094152
895000000.0 0.910737 -0.094179
900000000.0 0.910493 -0.094187
905000000.0 0.910396 -0.094224
910000000.0 0.910058 -0.09429
915000000.0 0.909897 -0.09437
920000000.0 0.90956 -0.094423
925000000.0 0.90948 -0.094375
930000000.0 0.909181 -0.094509
935000000.0 0.909052 -0.094517
940000000.0 0.908819 -0.094558
945000000.0 0.908408 -0.094558
950000000.0 0.908296 -0.09448
955000000.0 0.908199 -0.094579
960000000.0 0.907892 -0.094587
965000000.0 0.907598 -0.094507
970000000.0 0.907455 -0.094537
975000000.0 0.907176 -0.094655
980000000.0 0.907105 -0.09469
985000000.0 0.907044 -0.094708
990000000.0 0.906725 -0.094699
995000000.0 0.906544 -0.094692
1000000000.0 0.906333 -0.094834
1005000000.0 0.906192 -0.094849
1010000000.0 0.905895 -0.094813
1015000000.0 0.905711 -0.094912
1020000000.0 0.905494 -0.094848
1025000000.0 0.905271 -0.094811
1030000000.0 0.90516 -0.094954
1035000000.0 0.904875 -0.094853
1040000000.0 0.904836 -0.095012
1045000000.0 0.90449 -0.094988
1050000000.0 0.904384 -0.094959
1055000000.0 0.90418 -0.094959
1060000000.0 0.90395 -0.095068
1065000000.0 0.903785 -0.094982
1070000000.0 0.903535 -0.09504
1075000000.0 0.903503 -0.095133
1080000000.0 0.903253 -0.095099
1085000000.0 0.903038 -0.095135
1090000000.0 0.902757 -0.095148
1095000000.0 0.902559 -0.0952
1100000000.0 0.902448 -0.095219
1105000000.0 0.902339 -0.095136
1110000000.0 0.902194 -0.095057
1115000000.0 0.901865 -0.095211
1120000000.0 0.901747 -0.095203
1125000000.0 0.901513 -0.095251
1130000000.0 0.901338 -0.09516
1135000000.0 0.901117 -0.095276
1140000000.0 0.90098 -0.095221
1145000000.0 0.900784 -0.09519
1150000000.0 0.900731 -0.095101
1155000000.0 0.900414 -0.0952
1160000000.0 0.900291 -0.095217
1165000000.0 0.900046 -0.095251
1170000000.0 0.899822 -0.095088
1175000000.0 0.899626 -0.095185
1180000000.0 0.899422 -0.095181
1185000000.0 0.899261 -0.095175
1190000000.0 0.899087 -0.095243
1195000000.0 0.898899 -0.095298
1200000000.0 0.898703 -0.095274
1205000000.0 0.89848 -0.09517
1210000000.0 0.89834 -0.095283
1215000000.0 0.898201 -0.095262
1220000000.0 0.89781 -0.095228
1225000000.0 0.897648 -0.095255
1230000000.0 0.897566 -0.095171
1235000000.0 0.89729 -0.095113
1240000000.0 0.896995 -0.095127
1245000000.0 0.896772 -0.095205
1250000000.0 0.896769 -0.09518
1255000000.0 0.896455 -0.095176
1260000000.0 0.896223 -0.095103
1265000000.0 0.896033 -0.094993
1270000000.0 0.896064 -0.095001
1275000000.0 0.895808 -0.095027
1280000000.0 0.895554 -0.095071
1285000000.0 0.895245 -0.094954
1290000000.0 0.89509 -0.094868
1295000000.0 0.894845 -0.09499
1300000000.0 0.894604 -0.095004
1305000000.0 0.894412 -0.094833
1310000000.0 0.894114 -0.094916
1315000000.0 0.893955 -0.09483
1320000000.0 0.893755 -0.094852
1325000000.0 0.893603 -0.094756
1330000000.0 0.893245 -0.094859
1335000000.0 0.89309 -0.095006
1340000000.0 0.892896 -0.094794
1345000000.0 0.892537 -0.094768
1350000000.0 0.892362 -0.094774
1355000000.0 0.892201 -0.094749
1360000000.0 0.891963 -0.094779
1365000000.0 0.89154 -0.094784
1370000000.0 0.891588 -0.094833
1375000000.0 0.891288 -0.094778
1380000000.0 0.891019 -0.094862
1385000000.0 0.890742 -0.094847
1390000000.0 0.890517 -0.094784
1395000000.0 0.890183 -0.09475
1400000000.0 0.89012 -0.094864
1405000000.0 0.889826 -0.094718
1410000000.0 0.889547 -0.094704
1415000000.0 0.8893 -0.094735
1420000000.0 0.888965 -0.094768
1425000000.0 0.888812 -0.094754
1430000000.0 0.88847 -0.094661
1435000000.0 0.888148 -0.09473
1440000000.0 0.88791 -0.094651
1445000000.0 0.887667 -0.094837
1450000000.0 0.887478 -0.094765
1455000000.0 0.887136 -0.094664
1460000000.0 0.887016 -0.094688
1465000000.0 0.886611 -0.094675
1470000000.0 0.886477 -0.094658
1475000000.0 0.886177 -0.094637
1480000000.0 0.885998 -0.094765
1485000000.0 0.885736 -0.094724
1490000000.0 0.885439 -0.094648
1495000000.0 0.88522 -0.094731
1500000000.0 0.884895 -0.094705
1505000000.0 0.884595 -0.094826
1510000000.0 0.884319 -0.094766
1515000000.0 0.884288 -0.094798
1520000000.0 0.883795 -0.094848
1525000000.0 0.883568 -0.094713
1530000000.0 0.883374 -0.094815
1535000000.0 0.88312 -0.094845
1540000000.0 0.882803 -0.094892
1545000000.0 0.882603 -0.094779
1550000000.0 0.882356 -0.09498
1555000000.0 0.882097 -0.094815
1560000000.0 0.881918 -0.094835
1565000000.0 0.881679 -0.094801
1570000000.0 0.881398 -0.09491
1575000000.0 0.881072 -0.094932
1580000000.0 0.880837 -0.094851
1585000000.0 0.880432 -0.094953
1590000000.0 0.88019 -0.094895
1595000000.0 0.879953 -0.094953
1600000000.0 0.879581 -0.095004
1605000000.0 0.879348 -0.095202
1610000000.0 0.879143 -0.095071
1615000000.0 0.878885 -0.095113
1620000000.0 0.878569 -0.095202
1625000000.0 0.878528 -0.095076
1630000000.0 0.878047 -0.09507
1635000000.0 0.877683 -0.095072
1640000000.0 0.87756 -0.095266
1645000000.0 0.877073 -0.095321
1650000000.0 0.876852 -0.095239
1655000000.0 0.876795 -0.095364
1660000000.0 0.87637 -0.095354
1665000000.0 0.876136 -0.095522
1670000000.0 0.875766 -0.095485
1675000000.0 0.875647 -0.095646
1680000000.0 0.875157 -0.095599
1685000000.0 0.874983 -0.095617
1690000000.0 0.87482 -0.095732
1695000000.0 0.874416 -0.095745
1700000000.0 0.874271 -0.095699
1705000000.0 0.873984 -0.09578
1710000000.0 0.873532 -0.0959
1715000000.0 0.873323 -0.095773
1720000000.0 0.873196 -0.095945
1725000000.0 0.872921 -0.096003
1730000000.0 0.872697 -0.095947
1735000000.0 0.872391 -0.096136
1740000000.0 0.872124 -0.096061
1745000000.0 0.871818 -0.096099
1750000000.0 0.871647 -0.096252
1755000000.0 0.871213 -0.096262
1760000000.0 0.8709 -0.096207
1765000000.0 0.870637 -0.096357
1770000000.0 0.870337 -0.096572
1775000000.0 0.870019 -0.096577
1780000000.0 0.869741 -0.096726
1785000000.0 0.869508 -0.096676
1790000000.0 0.869283 -0.096732
1795000000.0 0.869086 -0.096931
1800000000.0 0.86876 -0.0969
1805000000.0 0.868547 -0.096775
1810000000.0 0.868272 -0.096992
1815000000.0 0.867962 -0.09711
1820000000.0 0.867814 -0.097336
1825000000.0 0.867579 -0.097478
1830000000.0 0.867333 -0.097493
1835000000.0 0.867011 -0.097511
1840000000.0 0.866749 -0.097706
1845000000.0 0.86633 -0.097539
1850000000.0 0.866177 -0.097955
1855000000.0 0.865957 -0.09793
1860000000.0 0.865838 -0.098118
1865000000.0 0.865442 -0.098073
1870000000.0 0.86516 -0.098215
1875000000.0 0.864874 -0.098235
1880000000.0 0.864743 -0.098375
1885000000.0 0.864514 -0.098658
1890000000.0 0.864182 -0.098503
1895000000.0 0.864147 -0.098834
1900000000.0 0.863724 -0.098781
1905000000.0 0.863429 -0.098923
1910000000.0 0.86303 -0.09911
1915000000.0 0.862942 -0.099403
1920000000.0 0.862511 -0.099332
1925000000.0 0.862384 -0.099358
1930000000.0 0.862244 -0.099493
1935000000.0 0.861965 -0.099756
1940000000.0 0.861828 -0.099829
1945000000.0 0.861393 -0.10008
1950000000.0 0.861278 -0.100073
1955000000.0 0.860988 -0.100079
1960000000.0 0.860627 -0.10042
1965000000.0 0.860574 -0.10055
1970000000.0 0.860279 -0.100694
1975000000.0 0.860064 -0.101024
1980000000.0 0.859827 -0.101138
1985000000.0 0.859661 -0.101336
1990000000.0 0.859304 -0.101383
1995000000.0 0.85916 -0.101645
2000000000.0 0.858872 -0.101848
2005000000.0 0.858724 -0.102088
2010000000.0 0.858372 -0.102258
2015000000.0 0.858279 -0.102481
2020000000.0 0.858014 -0.102657
2025000000.0 0.857838 -0.102849
2030000000.0 0.857571 -0.103189
2035000000.0 0.857352 -0.103251
2040000000.0 0.857188 -0.103446
2045000000.0 0.857019 -0.103656
2050000000.0 0.856741 -0.103913
2055000000.0 0.856597 -0.1041
2060000000.0 0.856393 -0.104261
2065000000.0 0.856266 -0.104626
2070000000.0 0.855922 -0.104869
2075000000.0 0.855752 -0.105093
2080000000.0 0.855513 -0.105315
2085000000.0 0.855292 -0.105635
2090000000.0 0.855137 -0.105761
2095000000.0 0.854949 -0.106065
2100000000.0 0.854845 -0.106406
2105000000.0 0.854824 -0.106663
2110000000.0 0.854564 -0.106946
2115000000.0 0.854312 -0.107182
2120000000.0 0.854269 -0.107337
2125000000.0 0.854094 -0.107532
2130000000.0 0.853927 -0.107822
2135000000.0 0.853799 -0.108128
2140000000.0 0.853662 -0.108431
2145000000.0 0.853514 -0.108737
2150000000.0 0.853397 -0.109082
2155000000.0 0.853353 -0.109392
2160000000.0 0.853136 -0.109715
2165000000.0 0.853004 -0.110005
2170000000.0 0.852871 -0.110164
2175000000.0 0.852857 -0.110624
2180000000.0 0.852651 -0.110991
2185000000.0 0.852509 -0.111343
2190000000.0 0.852464 -0.112004
2195000000.0 0.852257 -0.11193
2200000000.0 0.852191 -0.112564
2205000000.0 0.852117 -0.112728
2210000000.0 0.851934 -0.112991
2215000000.0 0.851982 -0.113491
2220000000.0 0.85173 -0.113745
2225000000.0 0.851713 -0.114153
2230000000.0 0.8518 -0.114712
2235000000.0 0.851496 -0.114872
2240000000.0 0.851349 -0.11524
2245000000.0 0.851393 -0.115662
2250000000.0 0.851258 -0.116035
2255000000.0 0.851373 -0.116356
2260000000.0 0.851233 -0.116878
2265000000.0 0.851218 -0.117167
2270000000.0 0.851095 -0.117715
2275000000.0 0.851146 -0.117912
2280000000.0 0.851201 -0.118487
2285000000.0 0.851113 -0.118756
2290000000.0 0.851266 -0.119114
2295000000.0 0.851034 -0.119449
2300000000.0 0.851069 -0.119886
2305000000.0 0.851012 -0.120167
2310000000.0 0.850954 -0.120489
2315000000.0 0.850923 -0.120978
2320000000.0 0.850903 -0.121267
2325000000.0 0.850906 -0.121776
2330000000.0 0.850899 -0.122183
2335000000.0 0.850916 -0.122587
2340000000.0 0.850845 -0.123046
2345000000.0 0.850858 -0.123458
2350000000.0 0.850827 -0.123826
2355000000.0 0.850837 -0.124222
2360000000.0 0.850828 -0.124655
2365000000.0 0.850837 -0.125073
2370000000.0 0.850839 -0.125354
2375000000.0 0.85087 -0.125967
2380000000.0 0.850959 -0.126343
2385000000.0 0.851091 -0.126737
2390000000.0 0.851028 -0.127273
2395000000.0 0.851135 -0.127829
2400000000.0 0.851099 -0.128146
2405000000.0 0.851282 -0.128625
2410000000.0 0.851455 -0.129036
2415000000.0 0.851462 -0.129524
2420000000.0 0.851516 -0.129734
2425000000.0 0.851679 -0.130305
2430000000.0 0.851608 -0.130679
2435000000.0 0.851745 -0.130925
2440000000.0 0.851895 -0.131559
2445000000.0 0.851951 -0.131895
2450000000.0 0.852336 -0.132476
2455000000.0 0.85212 -0.132819
2460000000.0 0.852449 -0.133228
2465000000.0 0.852577 -0.133725
2470000000.0 0.852825 -0.134128
2475000000.0 0.852931 -0.13449
2480000000.0 0.852916 -0.134973
2485000000.0 0.853054 -0.135258
2490000000.0 0.853325 -0.135707
2495000000.0 0.853435 -0.136208
2500000000.0 0.853814 -0.136672
2505000000.0 0.853801 -0.136866
2510000000.0 0.854098 -0.137334
2515000000.0 0.854229 -0.1377
2520000000.0 0.854452 -0.138119
2525000000.0 0.854564 -0.138447
2530000000.0 0.854914 -0.138891
2535000000.0 0.855073 -0.139415
2540000000.0 0.855189 -0.139628
2545000000.0 0.855363 -0.140045
2550000000.0 0.855477 -0.140357
2555000000.0 0.855803 -0.140707
2560000000.0 0.855828 -0.141153
2565000000.0 0.855901 -0.141479
2570000000.0 0.85607 -0.141934
2575000000.0 0.8563 -0.142309
2580000000.0 0.8564 -0.142746
2585000000.0 0.856578 -0.143036
2590000000.0 0.856867 -0.143416
2595000000.0 0.857121 -0.14389
2600000000.0 0.857343 -0.144174
2605000000.0 0.857584 -0.144698
2610000000.0 0.857685 -0.14501
2615000000.0 0.858079 -0.145355
2620000000.0 0.858229 -0.145834
2625000000.0 0.858485 -0.146165
2630000000.0 0.858606 -0.146644
2635000000.0 0.85901 -0.146931
2640000000.0 0.859145 -0.147266
2645000000.0 0.85937 -0.14766
2650000000.0 0.859769 -0.147881
2655000000.0 0.859989 -0.148321
2660000000.0 0.860312 -0.148508
2665000000.0 0.860449 -0.148838
2670000000.0 0.860759 -0.149069
2675000000.0 0.860984 -0.149448
2680000000.0 0.861125 -0.149601
2685000000.0 0.86133 -0.14996
2690000000.0 0.86157 -0.150337
2695000000.0 0.861705 -0.150839
2700000000.0 0.861969 -0.15105
2705000000.0 0.862183 -0.151199
2710000000.0 0.862324 -0.151715
2715000000.0 0.862689 -0.152228
2720000000.0 0.86308 -0.152419
2725000000.0 0.863235 -0.152626
2730000000.0 0.863407 -0.152982
2735000000.0 0.863962 -0.153331
2740000000.0 0.863919 -0.153735
2745000000.0 0.864488 -0.154022
2750000000.0 0.864646 -0.153995
2755000000.0 0.865101 -0.154599
2760000000.0 0.86533 -0.15492
2765000000.0 0.865776 -0.155158
2770000000.0 0.865945 -0.155571
2775000000.0 0.866452 -0.155586
2780000000.0 0.866565 -0.155984
2785000000.0 0.866899 -0.156058
2790000000.0 0.867225 -0.156731
2795000000.0 0.867587 -0.156887
2800000000.0 0.867915 -0.156961
2805000000.0 0.868231 -0.15698
2810000000.0 0.868494 -0.157224
2815000000.0 0.868723 -0.15728
2820000000.0 0.869082 -0.157326
2825000000.0 0.869289 -0.15763
2830000000.0 0.869581 -0.157732
2835000000.0 0.869722 -0.157845
2840000000.0 0.870058 -0.15786
2845000000.0 0.870401 -0.157928
2850000000.0 0.870657 -0.158049
2855000000.0 0.871063 -0.158224
2860000000.0 0.870996 -0.158391
2865000000.0 0.871335 -0.158462
2870000000.0 0.871668 -0.158753
2875000000.0 0.871936 -0.159111
2880000000.0 0.872208 -0.159205
2885000000.0 0.872471 -0.159487
2890000000.0 0.872861 -0.159437
2895000000.0 0.87326 -0.159633
2900000000.0 0.873539 -0.159743
2905000000.0 0.873921 -0.159779
2910000000.0 0.874221 -0.159777
2915000000.0 0.874548 -0.159813
2920000000.0 0.87475 -0.159771
2925000000.0 0.874971 -0.159776
2930000000.0 0.875326 -0.159668
2935000000.0 0.875551 -0.159695
2940000000.0 0.875608 -0.159571
2945000000.0 0.875827 -0.159505
2950000000.0 0.875932 -0.159572
2955000000.0 0.876151 -0.159522
2960000000.0 0.876181 -0.159535
2965000000.0 0.876274 -0.159611
2970000000.0 0.876484 -0.159604
2975000000.0 0.876572 -0.159675
2980000000.0 0.876828 -0.159625
2985000000.0 0.876924 -0.159744
2990000000.0 0.877043 -0.159626
2995000000.0 0.877125 -0.159788
3000000000.0 0.877288 -0.159937
3005000000.0 0.877508 -0.158966
3010000000.0 0.877604 -0.159274
3015000000.0 0.877755 -0.15926
3020000000.0 0.878078 -0.159706
3025000000.0 0.877975 -0.159575
3030000000.0 0.878243 -0.15954
3035000000.0 0.8784 -0.159908
3040000000.0 0.878853 -0.159676
3045000000.0 0.878951 -0.159938
3050000000.0 0.879895 -0.160316
3055000000.0 0.879323 -0.160119
3060000000.0 0.87996 -0.159858
3065000000.0 0.880301 -0.160081
3070000000.0 0.880595 -0.159584
3075000000.0 0.881003 -0.159812
3080000000.0 0.88143 -0.159312
3085000000.0 0.881819 -0.158872
3090000000.0 0.882043 -0.158692
3095000000.0 0.882556 -0.158493
3100000000.0 0.882487 -0.157996
3105000000.0 0.882575 -0.157684
3110000000.0 0.882673 -0.157368
3115000000.0 0.882833 -0.156707
3120000000.0 0.882894 -0.156444
3125000000.0 0.882684 -0.156128
3130000000.0 0.88259 -0.155865
3135000000.0 0.882688 -0.155279
3140000000.0 0.882554 -0.155318
3145000000.0 0.882375 -0.155082
3150000000.0 0.882581 -0.154864
3155000000.0 0.882354 -0.154506
3160000000.0 0.882111 -0.154493
3165000000.0 0.882247 -0.154413
3170000000.0 0.882184 -0.154257
3175000000.0 0.882148 -0.154153
3180000000.0 0.882196 -0.154323
3185000000.0 0.88236 -0.154142
3190000000.0 0.882425 -0.154101
3195000000.0 0.882574 -0.154184
3200000000.0 0.882911 -0.154046
3205000000.0 0.883031 -0.153714
3210000000.0 0.883265 -0.153665
3215000000.0 0.883549 -0.153274
3220000000.0 0.883724 -0.152783
3225000000.0 0.88377 -0.152383
3230000000.0 0.883899 -0.151806
3235000000.0 0.883938 -0.151469
3240000000.0 0.883901 -0.15105
3245000000.0 0.883919 -0.150991
3250000000.0 0.883699 -0.150497
3255000000.0 0.883741 -0.149905
3260000000.0 0.88375 -0.149513
3265000000.0 0.883591 -0.149272
3270000000.0 0.883406 -0.149009
3275000000.0 0.883181 -0.148772
3280000000.0 0.883086 -0.148124
3285000000.0 0.88313 -0.148195
3290000000.0 0.883167 -0.147871
3295000000.0 0.882653 -0.14713
3300000000.0 0.882468 -0.147074
3305000000.0 0.882354 -0.147289
3310000000.0 0.882518 -0.146838
3315000000.0 0.882344 -0.146555
3320000000.0 0.882254 -0.146461
3325000000.0 0.881768 -0.145938
3330000000.0 0.881851 -0.145886
3335000000.0 0.881581 -0.145948
3340000000.0 0.881543 -0.145503
3345000000.0 0.881765 -0.145154
3350000000.0 0.881365 -0.144974
3355000000.0 0.881599 -0.144654
3360000000.0 0.881586 -0.144641
3365000000.0 0.881393 -0.144621
3370000000.0 0.881683 -0.144033
3375000000.0 0.881251 -0.14391
3380000000.0 0.881109 -0.143635
3385000000.0 0.881385 -0.143366
3390000000.0 0.881345 -0.142944
3395000000.0 0.881146 -0.14274
3400000000.0 0.88087 -0.142516
3405000000.0 0.880968 -0.142025
3410000000.0 0.881334 -0.141587
3415000000.0 0.880696 -0.141221
3420000000.0 0.880948 -0.14094
3425000000.0 0.880541 -0.140658
3430000000.0 0.880406 -0.140297
3435000000.0 0.880351 -0.139935
3440000000.0 0.880377 -0.139427
3445000000.0 0.879929 -0.139177
3450000000.0 0.880001 -0.138712
3455000000.0 0.879762 -0.13814
3460000000.0 0.879534 -0.137815
3465000000.0 0.8793 -0.137299
3470000000.0 0.879056 -0.136971
3475000000.0 0.878779 -0.136574
3480000000.0 0.878358 -0.1362
3485000000.0 0.877927 -0.135796
3490000000.0 0.877472 -0.135576
3495000000.0 0.877091 -0.135376
3500000000.0 0.876675 -0.135168
3505000000.0 0.876365 -0.134823
3510000000.0 0.875969 -0.134803
3515000000.0 0.875796 -0.134623
3520000000.0 0.87562 -0.134558
3525000000.0 0.875211 -0.134529
3530000000.0 0.875018 -0.134613
3535000000.0 0.875065 -0.13478
3540000000.0 0.875028 -0.134321
3545000000.0 0.875309 -0.134185
3550000000.0 0.875346 -0.134014
3555000000.0 0.875314 -0.133401
3560000000.0 0.875458 -0.132836
3565000000.0 0.875454 -0.132116
3570000000.0 0.875075 -0.131555
3575000000.0 0.876138 -0.131408
3580000000.0 0.875047 -0.130126
3585000000.0 0.873856 -0.12886
3590000000.0 0.873244 -0.128173
3595000000.0 0.872613 -0.127952
3600000000.0 0.871381 -0.127757
3605000000.0 0.870641 -0.127676
3610000000.0 0.869593 -0.127849
3615000000.0 0.869212 -0.127658
3620000000.0 0.86888 -0.128328
3625000000.0 0.868137 -0.128055
3630000000.0 0.868035 -0.128651
3635000000.0 0.868055 -0.128846
3640000000.0 0.868145 -0.128951
3645000000.0 0.868075 -0.128642
3650000000.0 0.868118 -0.128437
3655000000.0 0.867892 -0.128626
3660000000.0 0.867865 -0.127943
3665000000.0 0.867269 -0.127959
3670000000.0 0.867424 -0.127281
3675000000.0 0.867409 -0.127412
3680000000.0 0.867089 -0.127078
3685000000.0 0.866817 -0.126422
3690000000.0 0.866651 -0.126184
3695000000.0 0.866611 -0.126053
3700000000.0 0.866098 -0.125693
3705000000.0 0.865904 -0.125482
3710000000.0 0.86566 -0.124821
3715000000.0 0.86519 -0.124287
3720000000.0 0.864823 -0.123581
3725000000.0 0.864213 -0.123293
3730000000.0 0.863677 -0.122393
3735000000.0 0.862851 -0.122051
3740000000.0 0.861747 -0.121766
3745000000.0 0.860867 -0.121825
3750000000.0 0.859901 -0.121792
3755000000.0 0.858892 -0.122066
3760000000.0 0.858142 -0.122499
3765000000.0 0.857608 -0.123274
3770000000.0 0.857362 -0.123829
3775000000.0 0.857371 -0.124454
3780000000.0 0.857799 -0.125002
3785000000.0 0.858023 -0.125012
3790000000.0 0.858266 -0.124529
3795000000.0 0.858308 -0.124184
3800000000.0 0.85804 -0.123427
3805000000.0 0.857952 -0.123114
3810000000.0 0.857079 -0.122677
3815000000.0 0.856714 -0.122541
3820000000.0 0.856032 -0.122063
3825000000.0 0.855682 -0.121437
3830000000.0 0.854866 -0.121274
3835000000.0 0.853467 -0.121901
3840000000.0 0.85297 -0.122025
3845000000.0 0.852648 -0.121785
3850000000.0 0.851947 -0.121931
3855000000.0 0.851486 -0.122115
3860000000.0 0.851316 -0.122043
3865000000.0 0.850705 -0.122288
3870000000.0 0.850189 -0.12224
3875000000.0 0.84996 -0.122172
3880000000.0 0.849602 -0.121906
3885000000.0 0.84875 -0.122314
3890000000.0 0.848233 -0.122373
3895000000.0 0.847845 -0.122606
3900000000.0 0.847414 -0.122326
3905000000.0 0.847109 -0.122621
3910000000.0 0.846339 -0.122988
3915000000.0 0.845968 -0.122784
3920000000.0 0.845162 -0.12309
3925000000.0 0.844656 -0.123253
3930000000.0 0.844182 -0.123301
3935000000.0 0.843788 -0.123652
3940000000.0 0.843248 -0.123862
3945000000.0 0.842782 -0.123895
3950000000.0 0.842238 -0.124052
3955000000.0 0.841848 -0.124314
3960000000.0 0.841228 -0.124398
3965000000.0 0.840708 -0.124887
3970000000.0 0.840225 -0.124705
3975000000.0 0.839516 -0.124941
3980000000.0 0.839135 -0.125201
3985000000.0 0.838735 -0.125584
3990000000.0 0.838113 -0.12583
3995000000.0 0.837539 -0.125997
4000000000.0 0.837132 -0.126286
4005000000.0 0.836532 -0.126679
4010000000.0 0.836003 -0.126694
4015000000.0 0.835645 -0.126995
4020000000.0 0.83521 -0.127357
4025000000.0 0.834443 -0.127498
4030000000.0 0.833996 -0.12802
4035000000.0 0.833359 -0.128244
4040000000.0 0.83294 -0.128548
4045000000.0 0.832443 -0.128907
4050000000.0 0.831953 -0.129185
4055000000.0 0.831265 -0.129618
4060000000.0 0.830791 -0.129895
4065000000.0 0.830335 -0.130341
4070000000.0 0.829753 -0.130585
4075000000.0 0.82915 -0.131051
4080000000.0 0.828593 -0.131475
4085000000.0 0.828069 -0.131722
4090000000.0 0.827441 -0.132203
4095000000.0 0.826887 -0.132633
4100000000.0 0.826566 -0.133117
4105000000.0 0.825878 -0.133527
4110000000.0 0.825482 -0.134025
4115000000.0 0.82485 -0.134226
4120000000.0 0.824264 -0.134786
4125000000.0 0.823771 -0.135316
4130000000.0 0.823093 -0.135683
4135000000.0 0.822569 -0.136208
4140000000.0 0.822068 -0.136687
4145000000.0 0.821347 -0.137092
4150000000.0 0.820869 -0.137746
4155000000.0 0.820486 -0.138323
4160000000.0 0.819826 -0.138899
4165000000.0 0.819134 -0.139607
4170000000.0 0.818731 -0.139976
4175000000.0 0.818214 -0.140655
4180000000.0 0.817481 -0.141383
4185000000.0 0.81712 -0.142127
4190000000.0 0.816461 -0.142626
4195000000.0 0.816272 -0.143093
4200000000.0 0.81564 -0.144025
4205000000.0 0.81497 -0.144755
4210000000.0 0.814441 -0.145139
4215000000.0 0.814241 -0.145914
4220000000.0 0.813638 -0.146726
4225000000.0 0.813385 -0.147176
4230000000.0 0.812713 -0.147891
4235000000.0 0.812392 -0.148687
4240000000.0 0.811918 -0.149301
4245000000.0 0.811461 -0.150406
4250000000.0 0.810812 -0.150903
4255000000.0 0.810234 -0.151723
4260000000.0 0.810039 -0.152312
4265000000.0 0.809549 -0.153119
4270000000.0 0.809132 -0.153922
4275000000.0 0.808629 -0.154787
4280000000.0 0.80831 -0.155512
4285000000.0 0.807753 -0.156429
4290000000.0 0.807558 -0.157141
4295000000.0 0.807078 -0.15784
4300000000.0 0.806518 -0.158818
4305000000.0 0.80605 -0.159603
4310000000.0 0.805827 -0.160355
4315000000.0 0.805432 -0.161208
4320000000.0 0.805151 -0.162173
4325000000.0 0.804523 -0.162975
4330000000.0 0.804374 -0.163669
4335000000.0 0.803755 -0.164602
4340000000.0 0.803422 -0.165334
4345000000.0 0.802884 -0.1664
4350000000.0 0.802677 -0.167253
4355000000.0 0.80228 -0.168149
4360000000.0 0.80186 -0.169183
4365000000.0 0.801503 -0.170142
4370000000.0 0.800963 -0.171391
4375000000.0 0.800722 -0.171953
4380000000.0 0.800535 -0.173174
4385000000.0 0.800065 -0.174347
4390000000.0 0.799899 -0.175377
4395000000.0 0.799753 -0.176324
4400000000.0 0.79965 -0.177623
4405000000.0 0.79901 -0.178353
4410000000.0 0.799056 -0.179448
4415000000.0 0.799228 -0.180336
4420000000.0 0.798789 -0.18157
4425000000.0 0.799318 -0.182579
4430000000.0 0.798723 -0.183368
4435000000.0 0.798626 -0.184428
4440000000.0 0.798629 -0.185144
4445000000.0 0.798232 -0.186053
4450000000.0 0.798127 -0.186951
4455000000.0 0.798098 -0.188298
4460000000.0 0.797783 -0.188893
4465000000.0 0.797617 -0.190138
4470000000.0 0.797428 -0.190829
4475000000.0 0.797171 -0.192166
4480000000.0 0.79674 -0.193234
4485000000.0 0.796706 -0.194535
4490000000.0 0.796188 -0.195718
4495000000.0 0.796404 -0.197017
4500000000.0 0.796139 -0.198169
4505000000.0 0.796496 -0.199387
4510000000.0 0.796659 -0.200485
4515000000.0 0.796772 -0.201819
4520000000.0 0.796952 -0.203034
4525000000.0 0.79742 -0.20415
4530000000.0 0.797396 -0.205069
4535000000.0 0.797863 -0.205857
4540000000.0 0.797858 -0.207115
4545000000.0 0.798168 -0.207927
4550000000.0 0.798299 -0.208947
4555000000.0 0.79844 -0.210015
4560000000.0 0.798696 -0.2111
4565000000.0 0.798636 -0.211813
4570000000.0 0.799184 -0.21284
4575000000.0 0.799367 -0.213754
4580000000.0 0.799544 -0.214701
4585000000.0 0.799659 -0.21564
4590000000.0 0.799965 -0.216479
4595000000.0 0.800122 -0.217508
4600000000.0 0.800287 -0.218497
4605000000.0 0.800562 -0.219388
4610000000.0 0.800846 -0.220405
4615000000.0 0.800918 -0.221336
4620000000.0 0.801133 -0.222368
4625000000.0 0.801532 -0.223303
4630000000.0 0.801771 -0.224281
4635000000.0 0.802078 -0.22527
4640000000.0 0.802363 -0.226309
4645000000.0 0.802707 -0.227334
4650000000.0 0.802975 -0.228272
4655000000.0 0.803442 -0.229415
4660000000.0 0.803876 -0.230131
4665000000.0 0.804579 -0.230874
4670000000.0 0.804868 -0.232004
4675000000.0 0.805537 -0.233061
4680000000.0 0.8061 -0.233841
4685000000.0 0.806807 -0.234596
4690000000.0 0.807107 -0.235564
4695000000.0 0.807955 -0.236346
4700000000.0 0.808378 -0.236866
4705000000.0 0.809788 -0.23837
4710000000.0 0.810047 -0.238749
4715000000.0 0.810184 -0.239252
4720000000.0 0.811091 -0.240146
4725000000.0 0.811763 -0.240364
4730000000.0 0.812324 -0.240901
4735000000.0 0.812829 -0.24182
4740000000.0 0.813326 -0.242404
4745000000.0 0.813607 -0.242957
4750000000.0 0.814305 -0.243991
4755000000.0 0.814724 -0.244616
4760000000.0 0.815541 -0.245375
4765000000.0 0.816198 -0.246333
4770000000.0 0.816874 -0.246822
4775000000.0 0.817576 -0.24803
4780000000.0 0.818571 -0.248569
4785000000.0 0.819622 -0.249112
4790000000.0 0.820372 -0.249578
4795000000.0 0.821436 -0.250105
4800000000.0 0.822452 -0.250792
4805000000.0 0.823373 -0.251085
4810000000.0 0.824227 -0.251387
4815000000.0 0.825206 -0.251546
4820000000.0 0.825977 -0.251722
4825000000.0 0.826772 -0.251748
4830000000.0 0.827557 -0.2522
4835000000.0 0.828399 -0.252428
4840000000.0 0.829141 -0.252534
4845000000.0 0.829676 -0.253033
4850000000.0 0.830367 -0.253286
4855000000.0 0.831157 -0.253327
4860000000.0 0.8318 -0.253539
4865000000.0 0.832674 -0.253783
4870000000.0 0.8334 -0.254039
4875000000.0 0.834143 -0.254223
4880000000.0 0.834842 -0.254468
4885000000.0 0.835786 -0.253348
4890000000.0 0.836414 -0.254827
4895000000.0 0.837566 -0.254822
4900000000.0 0.83825 -0.254784
4905000000.0 0.838916 -0.254973
4910000000.0 0.839651 -0.255117
4915000000.0 0.840508 -0.255314
4920000000.0 0.841402 -0.255567
4925000000.0 0.842088 -0.255331
4930000000.0 0.842964 -0.255529
4935000000.0 0.843646 -0.25518
4940000000.0 0.84466 -0.25523
4945000000.0 0.845533 -0.255546
4950000000.0 0.846328 -0.255301
4955000000.0 0.847281 -0.255378
4960000000.0 0.847837 -0.25544
4965000000.0 0.848878 -0.254995
4970000000.0 0.849693 -0.255164
4975000000.0 0.850247 -0.254592
4980000000.0 0.851319 -0.25482
4985000000.0 0.851665 -0.254962
4990000000.0 0.852906 -0.254458
4995000000.0 0.853996 -0.254386
5000000000.0 0.854776 -0.254527
5005000000.0 0.855821 -0.254011
5010000000.0 0.856471 -0.253929
5015000000.0 0.857256 -0.253592
5020000000.0 0.857886 -0.253089
5025000000.0 0.859295 -0.252679
5030000000.0 0.860185 -0.252555
5035000000.0 0.860959 -0.252035
5040000000.0 0.861908 -0.251332
5045000000.0 0.862828 -0.251005
5050000000.0 0.863315 -0.250612
5055000000.0 0.864867 -0.249957
5060000000.0 0.865033 -0.249361
5065000000.0 0.865594 -0.248485
5070000000.0 0.866322 -0.248386
5075000000.0 0.867181 -0.247636
5080000000.0 0.867653 -0.24715
5085000000.0 0.868193 -0.246319
5090000000.0 0.869056 -0.245963
5095000000.0 0.869196 -0.245305
5100000000.0 0.869945 -0.244656
5105000000.0 0.870722 -0.244052
5110000000.0 0.871197 -0.243809
5115000000.0 0.87166 -0.243109
5120000000.0 0.872189 -0.242763
5125000000.0 0.872903 -0.241978
5130000000.0 0.873734 -0.241474
5135000000.0 0.874176 -0.240981
5140000000.0 0.87477 -0.240198
5145000000.0 0.87533 -0.239549
5150000000.0 0.875787 -0.238797
5155000000.0 0.87625 -0.238127
5160000000.0 0.876758 -0.237435
5165000000.0 0.877254 -0.236702
5170000000.0 0.877816 -0.235944
5175000000.0 0.878301 -0.235265
5180000000.0 0.878688 -0.234651
5185000000.0 0.879221 -0.233976
5190000000.0 0.879713 -0.233215
5195000000.0 0.880352 -0.232505
5200000000.0 0.880626 -0.231779
5205000000.0 0.881032 -0.231093
5210000000.0 0.88159 -0.23042
5215000000.0 0.881887 -0.229769
5220000000.0 0.882246 -0.228931
5225000000.0 0.882361 -0.228249
5230000000.0 0.882986 -0.227348
5235000000.0 0.883194 -0.226871
5240000000.0 0.883287 -0.225826
5245000000.0 0.883488 -0.225264
5250000000.0 0.883905 -0.224679
5255000000.0 0.884205 -0.223616
5260000000.0 0.884386 -0.223243
5265000000.0 0.884525 -0.22282
5270000000.0 0.884996 -0.2217
5275000000.0 0.885263 -0.221107
5280000000.0 0.885273 -0.220431
5285000000.0 0.885605 -0.219331
5290000000.0 0.885959 -0.219036
5295000000.0 0.88632 -0.218306
5300000000.0 0.886692 -0.217603
5305000000.0 0.886733 -0.2165
5310000000.0 0.887224 -0.215722
5315000000.0 0.887526 -0.214994
5320000000.0 0.887835 -0.214226
5325000000.0 0.888086 -0.213196
5330000000.0 0.888345 -0.212388
5335000000.0 0.888585 -0.211489
5340000000.0 0.888687 -0.210529
5345000000.0 0.888818 -0.209829
5350000000.0 0.889024 -0.208787
5355000000.0 0.888859 -0.208011
5360000000.0 0.888911 -0.206994
5365000000.0 0.888921 -0.206092
5370000000.0 0.889099 -0.205368
5375000000.0 0.889059 -0.204641
5380000000.0 0.888948 -0.203821
5385000000.0 0.888957 -0.202938
5390000000.0 0.889084 -0.202311
5395000000.0 0.889052 -0.20159
5400000000.0 0.889078 -0.200916
5405000000.0 0.889144 -0.200123
5410000000.0 0.889191 -0.199186
5415000000.0 0.888983 -0.198502
5420000000.0 0.888982 -0.197764
5425000000.0 0.888963 -0.19699
5430000000.0 0.888934 -0.196194
5435000000.0 0.888946 -0.195405
5440000000.0 0.888824 -0.194528
5445000000.0 0.888764 -0.193657
5450000000.0 0.888691 -0.19289
5455000000.0 0.888539 -0.192054
5460000000.0 0.88844 -0.191324
5465000000.0 0.888134 -0.190502
5470000000.0 0.887959 -0.189706
5475000000.0 0.887641 -0.188871
5480000000.0 0.887529 -0.188312
5485000000.0 0.887272 -0.187658
5490000000.0 0.886936 -0.1871
5495000000.0 0.886497 -0.186399
5500000000.0 0.886425 -0.185695
5505000000.0 0.88595 -0.184788
5510000000.0 0.885909 -0.184639
5515000000.0 0.885784 -0.183996
5520000000.0 0.88537 -0.183524
5525000000.0 0.88507 -0.182527
5530000000.0 0.885018 -0.182025
5535000000.0 0.884725 -0.180958
5540000000.0 0.884361 -0.180915
5545000000.0 0.884199 -0.180435
5550000000.0 0.883862 -0.179791
5555000000.0 0.883481 -0.17914
5560000000.0 0.882743 -0.178479
5565000000.0 0.882846 -0.177755
5570000000.0 0.882038 -0.177467
5575000000.0 0.881666 -0.176477
5580000000.0 0.881439 -0.176305
5585000000.0 0.881144 -0.176105
5590000000.0 0.880914 -0.175406
5595000000.0 0.880503 -0.174786
5600000000.0 0.879799 -0.174629
5605000000.0 0.879503 -0.174182
5610000000.0 0.879415 -0.173769
5615000000.0 0.878553 -0.17345
5620000000.0 0.878618 -0.172467
5625000000.0 0.877823 -0.172546
5630000000.0 0.878535 -0.171515
5635000000.0 0.877592 -0.171177
5640000000.0 0.877146 -0.170945
5645000000.0 0.876632 -0.17016
5650000000.0 0.876464 -0.169541
5655000000.0 0.87584 -0.16928
5660000000.0 0.875268 -0.168811
5665000000.0 0.874808 -0.168293
5670000000.0 0.87431 -0.167791
5675000000.0 0.873845 -0.167514
5680000000.0 0.873209 -0.167207
5685000000.0 0.872769 -0.166839
5690000000.0 0.872371 -0.166462
5695000000.0 0.871802 -0.165862
5700000000.0 0.871412 -0.165474
5705000000.0 0.871137 -0.164946
5710000000.0 0.870538 -0.164644
5715000000.0 0.869994 -0.164238
5720000000.0 0.869332 -0.16383
5725000000.0 0.868686 -0.163721
5730000000.0 0.868295 -0.163144
5735000000.0 0.867593 -0.162555
5740000000.0 0.867072 -0.162351
5745000000.0 0.866525 -0.162101
5750000000.0 0.866028 -0.161476
5755000000.0 0.865306 -0.161144
5760000000.0 0.864732 -0.160788
5765000000.0 0.864133 -0.160403
5770000000.0 0.863409 -0.159992
5775000000.0 0.862718 -0.159793
5780000000.0 0.862079 -0.159345
5785000000.0 0.861453 -0.15905
5790000000.0 0.860673 -0.158583
5795000000.0 0.859852 -0.158426
5800000000.0 0.859113 -0.158027
5805000000.0 0.858469 -0.157687
5810000000.0 0.857524 -0.157546
5815000000.0 0.856559 -0.157186
5820000000.0 0.855985 -0.156825
5825000000.0 0.854875 -0.156803
5830000000.0 0.854253 -0.156575
5835000000.0 0.853348 -0.156242
5840000000.0 0.852304 -0.156162
5845000000.0 0.851682 -0.155739
5850000000.0 0.850523 -0.155782
5855000000.0 0.849213 -0.155538
5860000000.0 0.848635 -0.155456
5865000000.0 0.847423 -0.155309
5870000000.0 0.846587 -0.155435
5875000000.0 0.846103 -0.155109
5880000000.0 0.844924 -0.15531
5885000000.0 0.844204 -0.154904
5890000000.0 0.843236 -0.155154
5895000000.0 0.842078 -0.155051
5900000000.0 0.840968 -0.155075
5905000000.0 0.840833 -0.155049
5910000000.0 0.839414 -0.155047
5915000000.0 0.838452 -0.155219
5920000000.0 0.837432 -0.155179
5925000000.0 0.836396 -0.155095
5930000000.0 0.835788 -0.155429
5935000000.0 0.834777 -0.155071
5940000000.0 0.833347 -0.15542
5945000000.0 0.832346 -0.155413
5950000000.0 0.831224 -0.155637
5955000000.0 0.830417 -0.155916
5960000000.0 0.829033 -0.15598
5965000000.0 0.827975 -0.155955
5970000000.0 0.827109 -0.156578
5975000000.0 0.825922 -0.156741
5980000000.0 0.824839 -0.157287
5985000000.0 0.824052 -0.157688
5990000000.0 0.823302 -0.157953
5995000000.0 0.822119 -0.158077
6000000000.0 0.820949 -0.15862
