! Created with skrf 1.12.0 (http://scikit-rf.org).
# Hz S RI R 50.0 
!freq ReS11 ImS11
!
100000000.0 1.0000724715992546 0.0004204929388823408
105000000.0 1.000037072324204 0.00041875780644824403
110000000.0 0.9999567913618239 0.0004992650566933231
115000000.0 1.0000686027812982 0.00046308976054802676
120000000.0 0.9997877298487955 0.0006262740401142717
125000000.0 0.9999085908314377 0.0003851279926834603
130000000.0 1.0000464105682811 0.0003726525017202394
135000000.0 1.0000265870909602 0.00043107195305120826
140000000.0 1.0000363854803296 0.00045721653301947397
145000000.0 1.0001385312638584 0.0003427660428210999
150000000.0 1.000148913570444 0.0005769824147173506
155000000.0 1.000142627129214 0.0004536198045408932
160000000.0 1.0001208673180555 0.0004531983245834565
165000000.0 1.0001097904454619 0.00044624090634782485
170000000.0 1.0002215202528169 0.0005473214162851086
175000000.0 1.0002251743784105 0.00048093166058950604
180000000.0 1.0002889809454578 0.0006310500533361332
185000000.0 1.0001753124216775 0.00052459975437644
190000000.0 1.000272091199304 0.000563638034710061
195000000.0 1.0002830421021016 0.0005795609283150598
200000000.0 1.0002488130335105 0.0006588178764246491
205000000.0 1.0003382034187744 0.0006109735597428753
210000000.0 1.0005460257644232 0.0005904756204544933
215000000.0 1.0003388055257125 0.0006395992266722548
220000000.0 1.000393243360897 0.0005944889915722808
225000000.0 1.0003014398800951 0.0007351208964494805
230000000.0 1.000441953559909 0.0007022094225767727
235000000.0 1.000593276393101 0.0006837331643536505
240000000.0 1.0006027361804666 0.0006840475016717354
245000000.0 1.0005486767769356 0.0008407341219644192
250000000.0 1.0006130283029575 0.0008853668625708519
255000000.0 1.0007005885079496 0.0007767925304053556
260000000.0 1.000579480935735 0.0008823715724907257
265000000.0 1.000634680388905 0.0008483388446489968
270000000.0 1.0005684471733582 0.0008637576552177856
275000000.0 1.0007298440045105 0.0009124682875986591
280000000.0 1.0007001047040578 0.0009956332898569205
285000000.0 1.0008155990271226 0.0009605716556006755
290000000.0 1.0007224086678168 0.0009815090601817858
295000000.0 1.0008782520831598 0.0011476017370420808
300000000.0 1.0010572110478435 0.0010387705115295594
305000000.0 1.0010231374240899 0.0011689948775549049
310000000.0 1.0011207141323404 0.001064426602147829
315000000.0 1.0010556691198342 0.001193005341727758
320000000.0 1.0011051862942426 0.0012919965209813931
325000000.0 1.0011195510638142 0.0012805103373175954
330000000.0 1.0010753582141165 0.0012670030874542876
335000000.0 1.0011794372426313 0.0012757086622018322
340000000.0 1.0012114464706932 0.001291928349705223
345000000.0 1.00124387007412 0.0014908434523860565
350000000.0 1.0014028061683495 0.001452797664633254
355000000.0 1.0013898393408416 0.0015048130996102812
360000000.0 1.001310300464205 0.0014497665694962985
365000000.0 1.0014262221967947 0.0016060141519217636
370000000.0 1.0014858472942734 0.00169401035118435
375000000.0 1.0016096388750855 0.0016451751582011469
380000000.0 1.0016144505122766 0.0017446730441309016
385000000.0 1.0016622381637694 0.001841005104011397
390000000.0 1.0016609130184853 0.0017998158170103942
395000000.0 1.0017077769796112 0.0019679041769510284
400000000.0 1.0016723755644845 0.00192224962235115
405000000.0 1.0018807160119236 0.0019117636587350042
410000000.0 1.0018754243703565 0.001974477357504067
415000000.0 1.0019432030188549 0.0020253201919167504
420000000.0 1.0019146735222384 0.0020593845513293455
425000000.0 1.0020553507641972 0.0020705723706368126
430000000.0 1.001975578874719 0.0021333610322920396
435000000.0 1.002222418134674 0.0022968316850952505
440000000.0 1.0022325257569997 0.0022359850503409742
445000000.0 1.002207889382567 0.002283139369423992
450000000.0 1.0022910526955204 0.002272977140767157
455000000.0 1.0023568029732413 0.0023932255594370155
460000000.0 1.0023763936194094 0.002459086516349977
465000000.0 1.0025346738214893 0.002578600178364104
470000000.0 1.0025008239920528 0.002463160587115375
475000000.0 1.002593344886048 0.0025032871722666344
480000000.0 1.0026303100195166 0.0026111029339822554
485000000.0 1.002605342973335 0.0027079738405790797
490000000.0 1.0027123532884308 0.0027374637285690704
495000000.0 1.0027675368988114 0.0028192470875243836
500000000.0 1.0028367931306772 0.0028770070951735878
505000000.0 1.0028924247323958 0.0028973718898067115
510000000.0 1.0030224372756738 0.003038633365296888
515000000.0 1.0029573644063845 0.0030592163571218326
520000000.0 1.003078030390903 0.003144771767295586
525000000.0 1.0030922221061094 0.003079780760117773
530000000.0 1.0032321556009771 0.0031971480696614753
535000000.0 1.0031598145246041 0.003191089418095223
540000000.0 1.0033504735660406 0.003194836101482224
545000000.0 1.0033350558155865 0.003305255176820437
550000000.0 1.003336890071538 0.0033820008105009147
555000000.0 1.0034862533886963 0.003495096363893766
560000000.0 1.0034199214107058 0.0034171641284528576
565000000.0 1.0035799426307654 0.0035749641460696203
570000000.0 1.0036023803973504 0.0035531056754620313
575000000.0 1.0035992675109837 0.0037113912477654007
580000000.0 1.0036287747447807 0.0036357044186622347
585000000.0 1.0037164537316339 0.0036827708449921883
590000000.0 1.0038332070552434 0.003754967328443684
595000000.0 1.00380869349044 0.0038273558361255735
600000000.0 1.0038226643905053 0.003961190853406665
605000000.0 1.0039306082427097 0.003975607894803869
610000000.0 1.0040001252989772 0.004006672631053716
615000000.0 1.004019307396686 0.004003678236650149
620000000.0 1.0040956325707964 0.004128492851733495
625000000.0 1.0042106199856915 0.004177712870608626
630000000.0 1.004234349739082 0.004185026540911906
635000000.0 1.0043644049517984 0.004264881966893489
640000000.0 1.0043334031320454 0.004438335984156356
645000000.0 1.0042360225624551 0.004344488337679625
650000000.0 1.0043811631321637 0.004431647477575174
655000000.0 1.0044010708459785 0.004519725853360209
660000000.0 1.0044320122998478 0.004512800006752296
665000000.0 1.0044809773382921 0.004630451946842068
670000000.0 1.0046794677499382 0.004661095169513152
675000000.0 1.0047224107701318 0.004760789563752532
680000000.0 1.0045820522603492 0.004802165578751849
685000000.0 1.004705801620737 0.0049448387792569055
690000000.0 1.0048018260613982 0.0049685006563288175
695000000.0 1.0048640802170061 0.004973878673869031
700000000.0 1.0048762256270285 0.005035069624455044
705000000.0 1.0048672661942566 0.005086560498115005
710000000.0 1.005015396140155 0.005088921399073953
715000000.0 1.0049121444489324 0.005153747197699919
720000000.0 1.0051433246533943 0.005264284212819601
725000000.0 1.005101657950849 0.00531863496467123
730000000.0 1.00508825845519 0.005335485485885864
735000000.0 1.0051843522572441 0.005404288152851626
740000000.0 1.0051948957892398 0.005473892152692249
745000000.0 1.0052615116276133 0.005571305185385461
750000000.0 1.0052273007723544 0.00546571343855371
755000000.0 1.0052890095430917 0.005593367031969286
760000000.0 1.005335164155071 0.005680067055968927
765000000.0 1.005296907262398 0.005636766466839773
770000000.0 1.0053204577645465 0.005681156489935536
775000000.0 1.0054747121902778 0.005657752528576188
780000000.0 1.0052747739379453 0.0057903650243865375
785000000.0 1.0055144299466883 0.005704280494398539
790000000.0 1.0054936033176625 0.005860143456052908
795000000.0 1.0053924503040998 0.005880916989783883
800000000.0 1.0055396864860506 0.005899071062062081
805000000.0 1.005570751435655 0.0059745451192528215
810000000.0 1.0055900899186632 0.0060617455625016905
815000000.0 1.0055342033294343 0.006019392126124005
820000000.0 1.0056379702833773 0.0060916181385400805
825000000.0 1.0056036235395536 0.006054545527307008
830000000.0 1.0055930739171144 0.006067724073595563
835000000.0 1.005516650275358 0.006163458616274388
840000000.0 1.0056675638662453 0.00627170799907953
845000000.0 1.005697521926474 0.00623189667741548
850000000.0 1.0055534302120008 0.00627674603587071
855000000.0 1.0057269578266668 0.0062936703870212175
860000000.0 1.0057624806096117 0.006278936783145568
865000000.0 1.0056514501949583 0.0062513679104626
870000000.0 1.0056502341109332 0.006335431103033476
875000000.0 1.0057238982596837 0.006315924608362413
880000000.0 1.005802068858745 0.006338330161013282
885000000.0 1.0056982096830933 0.006326754475483074
890000000.0 1.0057305198772986 0.006334768548216058
895000000.0 1.0057195649715531 0.006375075927579318
900000000.0 1.0056363819177836 0.006391048823576312
905000000.0 1.0057218245149941 0.006476887200929623
910000000.0 1.0056036586113455 0.006433806264903702
915000000.0 1.0057446749067305 0.006254116734576293
920000000.0 1.0056701559904657 0.006426608964941738
925000000.0 1.0056817165464529 0.006369972821927896
930000000.0 1.0056454390448728 0.006313960651824165
935000000.0 1.005771271615274 0.006342554817093322
940000000.0 1.0056965514401242 0.006340761075271496
945000000.0 1.005544340277044 0.006335706061230863
950000000.0 1.0055876068606142 0.006349068188734212
955000000.0 1.0056310659997538 0.006333483261138904
960000000.0 1.0055312467611015 0.006277229625420373
965000000.0 1.0054919734941896 0.006315955053344971
970000000.0 1.0055233565513302 0.00627403400784651
975000000.0 1.0055086033374365 0.0062504183922697815
980000000.0 1.0055121804872607 0.0061910829175922345
985000000.0 1.0054790054612144 0.006169020263538714
990000000.0 1.0054888939384148 0.006192074762561013
995000000.0 1.005437053995679 0.006120040584230317
1000000000.0 1.0056042052467766 0.005953768768422732
1005000000.0 1.0054637639929271 0.006087175401699739
1010000000.0 1.0053344971463154 0.005998076881588835
1015000000.0 1.0053202465238376 0.00597967336326929
1020000000.0 1.0054525008877513 0.0058946545119475
1025000000.0 1.0052675586752053 0.005913220078361927
1030000000.0 1.0052531512714318 0.005854644899232696
1035000000.0 1.0051755158700544 0.005887873282204257
1040000000.0 1.005282528193998 0.005787911759786193
1045000000.0 1.005222761171979 0.0057872224528648115
1050000000.0 1.00506644180076 0.005734319645737287
1055000000.0 1.0050370725358335 0.005779499218615364
1060000000.0 1.0050860828492783 0.005557954191602722
1065000000.0 1.0050861659537016 0.005636408995907418
1070000000.0 1.0050156507922576 0.0054908197964749356
1075000000.0 1.0051017263090503 0.005460673658130932
1080000000.0 1.0050285210365708 0.005499954671457288
1085000000.0 1.0049782076728033 0.0054324076901576986
1090000000.0 1.0048804764897568 0.00540640273379794
1095000000.0 1.0049179418169685 0.005195057692172032
1100000000.0 1.0047453037440275 0.00526532402917875
1105000000.0 1.0048002301885732 0.005123004354329332
1110000000.0 1.004841512819779 0.005140217677637748
1115000000.0 1.0047393440740295 0.00501504168961682
1120000000.0 1.0047596520028659 0.005011499047433065
1125000000.0 1.0046199872509058 0.004859447645316112
1130000000.0 1.004625952571752 0.004917964064540997
1135000000.0 1.0044655725916964 0.004801817857642749
1140000000.0 1.004549766969234 0.00472517813762357
1145000000.0 1.0045300467231268 0.004740042230381021
1150000000.0 1.0045009397180613 0.004715966472748629
1155000000.0 1.0044289514010498 0.0046033409212833
1160000000.0 1.0043374526737405 0.004496897482959833
1165000000.0 1.0043293791511885 0.004495432493332602
1170000000.0 1.0043383854736507 0.004531873024768007
1175000000.0 1.0041817990116781 0.004359035909131882
1180000000.0 1.004199579385457 0.004368193736305292
1185000000.0 1.004218722256735 0.004284001544156028
1190000000.0 1.004031292849856 0.0041573754048207165
1195000000.0 1.004150481870349 0.004069987071113344
1200000000.0 1.004045844375587 0.004004488704311006
1205000000.0 1.003836186935179 0.003932593263003812
1210000000.0 1.0039613663684521 0.0037820302049116285
1215000000.0 1.0040048671966189 0.0037338003395858002
1220000000.0 1.0038274137992336 0.0037316946639110423
1225000000.0 1.0038014303652525 0.0035703760588556453
1230000000.0 1.0039081909102234 0.0037460456209989675
1235000000.0 1.0036494409257406 0.003713264367720159
1240000000.0 1.0036521965310525 0.0035002224619670847
1245000000.0 1.0035312127760905 0.003475194990508461
1250000000.0 1.0035268025188901 0.003512600449135735
1255000000.0 1.0034559888084695 0.003301507660646858
1260000000.0 1.003355853571601 0.003272415288448437
1265000000.0 1.003292326250991 0.003246863060153981
1270000000.0 1.0034327084328196 0.003243323508122266
1275000000.0 1.0035046029848755 0.003204672002876547
1280000000.0 1.003406427207701 0.0029690960491595363
1285000000.0 1.0032177165060099 0.0029926129752732705
1290000000.0 1.003108547687779 0.0029684930787542067
1295000000.0 1.0030976886534548 0.00276156809013465
1300000000.0 1.0030998020912092 0.0027200541827520765
1305000000.0 1.0029398746696163 0.0027627974295495843
1310000000.0 1.0030538901969597 0.0026760834062669533
1315000000.0 1.0029802949302855 0.002578741978142881
1320000000.0 1.002951237835863 0.0026917767427505775
1325000000.0 1.0029789219551921 0.002633762340227574
1330000000.0 1.0028760154999254 0.002354763105250398
1335000000.0 1.0028155948552244 0.0023163248812110935
1340000000.0 1.0026355416257668 0.0023390462582007455
1345000000.0 1.0026764366059115 0.002298019002512601
1350000000.0 1.002535646196612 0.002172452333532629
1355000000.0 1.0026103214634825 0.002132820058134562
1360000000.0 1.0024858730840258 0.001970651048486699
1365000000.0 1.002273581573741 0.0020014853690124832
1370000000.0 1.0023107323883877 0.0019349051174957902
1375000000.0 1.002288660395054 0.001894044532335349
1380000000.0 1.0022342490757057 0.0018136106937402356
1385000000.0 1.0021081468375614 0.001688883469435528
1390000000.0 1.0020495526217033 0.001709015115288514
1395000000.0 1.0019677854880458 0.0016230215621076812
1400000000.0 1.0020535509343031 0.0015108973990214818
1405000000.0 1.0019650899032924 0.0015507776923662012
1410000000.0 1.0018731986279994 0.0015189005313221724
1415000000.0 1.0018406096614894 0.0014086602342843022
1420000000.0 1.0017918056537156 0.0013460810569880816
1425000000.0 1.0017818804056244 0.0012969894254457035
1430000000.0 1.0016400388450404 0.0013510364202665099
1435000000.0 1.0015416911665096 0.0012409827474002405
1440000000.0 1.0014213979816062 0.0011161565506729997
1445000000.0 1.00143195974433 0.0009807583721360117
1450000000.0 1.0014295129178954 0.0009462783038588694
1455000000.0 1.0012574293280052 0.0009912508265635556
1460000000.0 1.001377339754372 0.0009174143418234161
1465000000.0 1.0012312017561178 0.0009579229383595028
1470000000.0 1.0012968405864704 0.0009054772855945372
1475000000.0 1.0011949088231675 0.0007765780792629986
1480000000.0 1.0011627477832683 0.0007517245752687973
1485000000.0 1.0010090694140594 0.0006177026357731926
1490000000.0 1.0009395585754495 0.0006350020804415878
1495000000.0 1.0008782605552082 0.0006318543759888334
1500000000.0 1.000944794157432 0.0004380253962441604
1505000000.0 1.0007192218370295 0.0004200628123479181
1510000000.0 1.00076042083734 0.00034411524332375696
1515000000.0 1.0007643749817836 0.00030017537660414665
1520000000.0 1.0005807391515098 0.0002484608845239209
1525000000.0 1.0005604040525125 0.00022786851003791264
1530000000.0 1.0006086772038907 7.480389438769427e-05
1535000000.0 1.0004156278329335 6.584781143444804e-05
1540000000.0 1.0004113691793137 -4.052218478785814e-05
1545000000.0 1.0004568377583172 6.697323422296523e-05
1550000000.0 1.000321139924616 -1.2280754654088866e-05
1555000000.0 1.0002966612032478 -0.0001326601816609541
1560000000.0 1.000190382129978 -0.0001254712746829942
1565000000.0 1.0002670850878819 -9.91305197539891e-05
1570000000.0 1.0000868723367538 -0.00012380558996126525
1575000000.0 0.9999760297159637 -0.00021110898811887643
1580000000.0 1.0001445166238836 -0.00035604852852056507
1585000000.0 0.9999473410290516 -0.00044264160277720144
1590000000.0 0.9999785995734676 -0.0005068013264357968
1595000000.0 0.9999945254639665 -0.000595877633961917
1600000000.0 0.9999699670369671 -0.0006402451067421754
1605000000.0 0.9998998867589298 -0.0007227931247569675
1610000000.0 0.9999873803844729 -0.0007728024369143059
1615000000.0 0.9998982834093306 -0.0006427591726429642
1620000000.0 0.9997889676201157 -0.000728455785593847
1625000000.0 0.9997795848222754 -0.0007617267320028736
1630000000.0 0.9998073603702701 -0.0007779093485455421
1635000000.0 0.9996616236397073 -0.0007060820717947652
1640000000.0 0.999603325084906 -0.0007947198604156135
1645000000.0 0.9995790225398633 -0.0008091011518886312
1650000000.0 0.9995952304215837 -0.0008870391030890236
1655000000.0 0.9996639618904872 -0.0009528452316716732
1660000000.0 0.9996794705865708 -0.0008857626388086958
1665000000.0 0.9996318089105927 -0.0011608974466004883
1670000000.0 0.9995434783490941 -0.0010024186362230163
1675000000.0 0.999737494782712 -0.001180706998295448
1680000000.0 0.9995372115819972 -0.0010725221411196457
1685000000.0 0.9995947575745743 -0.0010239267980728989
1690000000.0 0.9996395426690496 -0.001152468401316958
1695000000.0 0.9995513312371275 -0.0011725651634918483
1700000000.0 0.9996207552622219 -0.001057852217528611
1705000000.0 0.999548287870849 -0.0011923155439376438
1710000000.0 0.9993952900892732 -0.0012887269781233213
1715000000.0 0.9994053053019066 -0.0012893438895657614
1720000000.0 0.9996469291863432 -0.001309588603924701
1725000000.0 0.9995700759887277 -0.0013172991080930788
1730000000.0 0.9995830263800717 -0.0013002058949391326
1735000000.0 0.999401301068629 -0.0013471363743431154
1740000000.0 0.9995504371107885 -0.0013538666348600706
1745000000.0 0.9995424411982662 -0.001262091492388885
1750000000.0 0.9996828692358343 -0.0013830843821994528
1755000000.0 0.999561069890805 -0.0013716388421850076
1760000000.0 0.9995423115263072 -0.0013748028275870755
1765000000.0 0.9995693903148297 -0.0014214432597206156
1770000000.0 0.9995533549739883 -0.0013089259662079872
1775000000.0 0.9995172076788921 -0.0013991774574336991
1780000000.0 0.9997490486494124 -0.0014171090633777958
1785000000.0 0.9996116159223213 -0.0012591822540776324
1790000000.0 0.9996006442542664 -0.0013117944658133207
1795000000.0 0.999702445234418 -0.0013917455157927369
1800000000.0 0.9997021532862728 -0.001384506148105148
1805000000.0 0.9997046496855743 -0.0012025814369362243
1810000000.0 0.999827371067326 -0.0013006052432429568
1815000000.0 0.9997834626412314 -0.0011403667420278115
1820000000.0 0.9999312246659638 -0.001296361519765841
1825000000.0 0.9998486333625087 -0.0011485102192292393
1830000000.0 1.0000604359485692 -0.0011611135991278884
1835000000.0 1.0000610917781065 -0.0010846732245716403
1840000000.0 1.000105847825972 -0.0012347104867740097
1845000000.0 0.9998705053479913 -0.0009524635070358723
1850000000.0 0.9999680788315589 -0.00111816696470211
1855000000.0 1.0001016658468351 -0.0010432723851035253
1860000000.0 1.0002496528989848 -0.000935104522713578
1865000000.0 1.0000658408405008 -0.0010575409883002537
1870000000.0 1.0002351738413708 -0.001073586785080799
1875000000.0 1.0002159971878004 -0.0009304899563738954
1880000000.0 1.0003476143154975 -0.0007947254732846276
1885000000.0 1.000495534317645 -0.0009120180111660705
1890000000.0 1.0006708225911547 -0.0007177486385600736
1895000000.0 1.0006537764347803 -0.0005721401372344093
1900000000.0 1.0005797678610944 -0.000586922006583973
1905000000.0 1.0008436312402957 -0.00039705453418346806
1910000000.0 1.0006283127325446 -0.0004844401775814076
1915000000.0 1.0007433141234154 -0.0004380590272028708
1920000000.0 1.0007404966462294 -0.0002583736419599011
1925000000.0 1.0008169846062838 -0.00022545271227236797
1930000000.0 1.0008904670240404 -7.718302606359616e-05
1935000000.0 1.0010867857348882 9.240938377243e-05
1940000000.0 1.0013246473710027 7.256004011448297e-05
1945000000.0 1.0011827399675892 -8.055948387134957e-06
1950000000.0 1.0013280442110557 0.00017781964363010813
1955000000.0 1.0012128493916825 0.00042595355581514013
1960000000.0 1.0013425153164222 0.0004118185778067083
1965000000.0 1.0015671147294987 0.00038830004314017
1970000000.0 1.0015384552497257 0.0005744627905897186
1975000000.0 1.0017191299437262 0.0005104505183060816
1980000000.0 1.0017627907522213 0.000692343196665079
1985000000.0 1.0019473533962227 0.0006738621232327744
1990000000.0 1.001740670778799 0.0007344247579363891
1995000000.0 1.0019163509961815 0.0009163043869187804
2000000000.0 1.0020828196391145 0.0009811844943184587
2005000000.0 1.0022782822746505 0.001094611634491482
2010000000.0 1.0021942607387202 0.0010299735500592948
2015000000.0 1.0023767527746188 0.0012157120180841543
2020000000.0 1.0022960030893142 0.001173446267202793
2025000000.0 1.0024372829382557 0.0014138545630968554
2030000000.0 1.002673062151203 0.001442652813203935
2035000000.0 1.002606353739194 0.001587158375886717
2040000000.0 1.0028778697867375 0.0016578042685897287
2045000000.0 1.0028726275725413 0.0017815579898878458
2050000000.0 1.0030201366902733 0.0018860895719671389
2055000000.0 1.0031502995003523 0.0019782043413444916
2060000000.0 1.0032152726707597 0.002104485135015119
2065000000.0 1.0033351857010793 0.002088804909541997
2070000000.0 1.0032492741769128 0.002155620798272811
2075000000.0 1.003405682337463 0.002296351442204127
2080000000.0 1.003434931899545 0.002428249141297425
2085000000.0 1.0036024843296967 0.0024439290235777197
2090000000.0 1.0036507734261317 0.0026072756726724226
2095000000.0 1.0037450043172895 0.002756761605301378
2100000000.0 1.0038652638738605 0.00283959771494833
2105000000.0 1.0041570110556912 0.002876134659095094
2110000000.0 1.0041667883508707 0.0029221135808179155
2115000000.0 1.0041854788948417 0.003092262601240519
2120000000.0 1.0043720111702241 0.0032748085289968673
2125000000.0 1.0044500487918961 0.0033604281135250916
2130000000.0 1.0045287021078453 0.003424718169380591
2135000000.0 1.0046793148412023 0.003598704904570648
2140000000.0 1.0047733086379493 0.003683371058109691
2145000000.0 1.005031778981682 0.003759367384481254
2150000000.0 1.0049388117611084 0.0037557756270388573
2155000000.0 1.0050368815749768 0.0037826723419111838
2160000000.0 1.0052948313255723 0.003969939447669463
2165000000.0 1.0051311706195167 0.004217778401038961
2170000000.0 1.00531190630796 0.004185693806234641
2175000000.0 1.0056234236409403 0.0043240443189754415
2180000000.0 1.0055726038570767 0.004347079030645098
2185000000.0 1.0056177128126131 0.004559673708863149
2190000000.0 1.0058671087191544 0.00450790354299227
2195000000.0 1.00585804942873 0.004695708446108204
2200000000.0 1.0060092953611257 0.0046148241814489045
2205000000.0 1.0060118879334137 0.004749638960867656
2210000000.0 1.0060710859491044 0.005132958548649371
2215000000.0 1.0064097130048901 0.005009387723782106
2220000000.0 1.0063355798755467 0.005162188677251448
2225000000.0 1.0065652469283322 0.005161402446624635
2230000000.0 1.0067930564362992 0.005202879385949596
2235000000.0 1.0067551578798006 0.005358836585879762
2240000000.0 1.006805333490243 0.005522626461307091
2245000000.0 1.006860612647437 0.005455060666935924
2250000000.0 1.0068723639048045 0.0057215286642224175
2255000000.0 1.0071214294515143 0.005766847230691712
2260000000.0 1.0073217486567378 0.005732521931537127
2265000000.0 1.0074247916577983 0.005890048054311104
2270000000.0 1.0074398920659533 0.005853992804080621
2275000000.0 1.0076769655413917 0.006268063004188995
2280000000.0 1.007706930197176 0.006163644148754346
2285000000.0 1.007747456024337 0.006068891077445083
2290000000.0 1.0079809812970797 0.0064409864004118045
2295000000.0 1.0078939230417026 0.006452942908703201
2300000000.0 1.0081056123030245 0.006387791587609477
2305000000.0 1.008129857197351 0.006686300948162434
2310000000.0 1.0082499521887078 0.006763910410240994
2315000000.0 1.0082775859572404 0.006785766604914738
2320000000.0 1.0082717865601791 0.007026558379295863
2325000000.0 1.008504913183397 0.0070235487857614265
2330000000.0 1.008642681688274 0.0071593617687037165
2335000000.0 1.008631111359675 0.00713113408155981
2340000000.0 1.0087788095400383 0.007258101624359244
2345000000.0 1.0088767908580385 0.007417759262017075
2350000000.0 1.0089672695046843 0.007406024511471753
2355000000.0 1.0090092172631662 0.0076398594641502926
2360000000.0 1.0090988903806675 0.0077356108380276884
2365000000.0 1.0091228799002538 0.00786128641305443
2370000000.0 1.0092613877649603 0.007943834764685615
2375000000.0 1.0092673824454206 0.00787819479740102
2380000000.0 1.009359879331368 0.008086329941278626
2385000000.0 1.0096126567736583 0.00806515962346945
2390000000.0 1.0095519693160149 0.008042033707719089
2395000000.0 1.0095704543479753 0.00820921788549001
2400000000.0 1.0096102580095752 0.008338283218689905
2405000000.0 1.0097205792165167 0.00829853532642668
2410000000.0 1.0097742947082133 0.00856398360005446
2415000000.0 1.0099238048305546 0.008602255609401685
2420000000.0 1.0097770168343452 0.008809037150791014
2425000000.0 1.010010157433193 0.008764006109613538
2430000000.0 1.0098823431857844 0.00897572112770753
2435000000.0 1.0099539129412294 0.009125599066332158
2440000000.0 1.0101230385050701 0.009080249341681149
2445000000.0 1.009970126421161 0.009235306673139338
2450000000.0 1.0104860060768814 0.00932913918095672
2455000000.0 1.0100979304923392 0.009502828968804819
2460000000.0 1.010334035637167 0.009599654141958867
2465000000.0 1.0103462660708684 0.009615441556923354
2470000000.0 1.0104542337686508 0.009765310083400017
2475000000.0 1.0103546227109805 0.009933183701851903
2480000000.0 1.0103325233432767 0.010006990553288629
2485000000.0 1.0102691872291543 0.010010322473948102
2490000000.0 1.0104675851909655 0.010187608996371776
2495000000.0 1.0102121672216555 0.010249398900988315
2500000000.0 1.010459889175136 0.010329027493154383
2505000000.0 1.0103568392606315 0.01048192028831303
2510000000.0 1.0103902930780362 0.010600588686004811
2515000000.0 1.0105601540583327 0.01064039919682412
2520000000.0 1.0103488455933523 0.01076940291371479
2525000000.0 1.0104384012090044 0.010679842171897913
2530000000.0 1.0107013164852978 0.01076556569384702
2535000000.0 1.0106216519304763 0.010788076877186184
2540000000.0 1.0104947920492175 0.011075811958877052
2545000000.0 1.010519733880126 0.010968508603605735
2550000000.0 1.0105341021535237 0.011237254667770263
2555000000.0 1.0104361553591517 0.011250801503923507
2560000000.0 1.0105391029324635 0.011193058279134672
2565000000.0 1.0104237271192547 0.01129897101705187
2570000000.0 1.0103009825517004 0.01127631524731222
2575000000.0 1.01028386029334 0.011387869099563417
2580000000.0 1.010351261008141 0.011351750048353643
2585000000.0 1.0102887622403656 0.011475223626362569
2590000000.0 1.010145301682298 0.011545550156556778
2595000000.0 1.0103274864853509 0.011536540920717294
2600000000.0 1.010142406469041 0.011614034829615375
2605000000.0 1.0102545957980353 0.011614738102860836
2610000000.0 1.0099604269801685 0.011537903938959765
2615000000.0 1.0101218399532679 0.011658757043494792
2620000000.0 1.0101145290915587 0.011771748004126911
2625000000.0 1.009963475807336 0.011699714146179123
2630000000.0 1.0098605100030413 0.011649444780219145
2635000000.0 1.00987062331896 0.011649215637601068
2640000000.0 1.0097650954964692 0.011686500742501086
2645000000.0 1.0096400901564244 0.011704369005290751
2650000000.0 1.0096186730582108 0.011659914587062706
2655000000.0 1.00959978117805 0.011637432455492876
2660000000.0 1.009682579292712 0.01176663945721976
2665000000.0 1.0093961789773693 0.011765855619078077
2670000000.0 1.0093008921003357 0.011762458246111716
2675000000.0 1.0092836619750838 0.011516084515780383
2680000000.0 1.0093576472784824 0.011649380024852796
2685000000.0 1.0092412514230316 0.011557883858131057
2690000000.0 1.009040103334139 0.01165828070225591
2695000000.0 1.0088911168147945 0.01139273091889482
2700000000.0 1.0089190529064938 0.011461223036240384
2705000000.0 1.0088691927067677 0.011518912218491951
2710000000.0 1.0089285971420268 0.011344099225546897
2715000000.0 1.0088455934220626 0.011159247480109605
2720000000.0 1.0088605677154185 0.011195049231939983
2725000000.0 1.0086996868959437 0.01103083206405537
2730000000.0 1.0085183649766514 0.011238359425739091
2735000000.0 1.008471475240748 0.011223706473107881
2740000000.0 1.0082519064696969 0.010856105072437575
2745000000.0 1.0082476961907536 0.010954117850284243
2750000000.0 1.008157117386794 0.01088426305300056
2755000000.0 1.008224833615553 0.010759199798690729
2760000000.0 1.0079904951205882 0.010619170508871033
2765000000.0 1.0080190825047017 0.010373712779474983
2770000000.0 1.0078689072111313 0.010460536162939365
2775000000.0 1.00783873623278 0.010120610056478995
2780000000.0 1.007562977668953 0.009918948034600233
2785000000.0 1.007482589864614 0.010124432787162041
2790000000.0 1.007492809619285 0.009751418637280533
2795000000.0 1.0074220210025182 0.00974783304504471
2800000000.0 1.0074467443322328 0.009525969869415991
2805000000.0 1.0071530071306862 0.009626316668159106
2810000000.0 1.0070424029130158 0.009528436804078805
2815000000.0 1.006900350738294 0.009292584459313536
2820000000.0 1.0069422207986376 0.009264554114117753
2825000000.0 1.0069660724061218 0.00903000033347258
2830000000.0 1.0068330987887808 0.008760405826509795
2835000000.0 1.0065842213968106 0.008679363528879767
2840000000.0 1.0064953267268166 0.008953516772805113
2845000000.0 1.0065433412259757 0.008612847037155095
2850000000.0 1.006290743041222 0.008622064934107056
2855000000.0 1.0062907286919356 0.008311173572728746
2860000000.0 1.0059288603898855 0.008286439793208296
2865000000.0 1.0060081537634444 0.008112123704989923
2870000000.0 1.0058607918607108 0.007980499003584805
2875000000.0 1.0058373433315826 0.007833927704965982
2880000000.0 1.0057673935200857 0.0076530817317773375
2885000000.0 1.0057288075527966 0.00748228324238839
2890000000.0 1.0055715379505559 0.0073569495143054695
2895000000.0 1.005460432528881 0.007229067937993788
2900000000.0 1.0054761349663395 0.007102494958815944
2905000000.0 1.0053314409125382 0.006937867659733906
2910000000.0 1.0053175077536392 0.006955643325845447
2915000000.0 1.0051755314746191 0.006759647309195947
2920000000.0 1.0051347151735988 0.006605529509817347
2925000000.0 1.0050014528283713 0.0064108729883812976
2930000000.0 1.0049252661823151 0.006244929928501407
2935000000.0 1.0048068134736918 0.006183553068537486
2940000000.0 1.0047549235236015 0.005948167590355573
2945000000.0 1.0046468935221355 0.005959660192323692
2950000000.0 1.004569720759444 0.005699694762435371
2955000000.0 1.0044572578697737 0.00557696295869487
2960000000.0 1.0043136911656025 0.0054576389321122735
2965000000.0 1.004206561602905 0.005281461149491077
2970000000.0 1.0042167721595732 0.005169921683558032
2975000000.0 1.004066096305855 0.005145364364164386
2980000000.0 1.004080741671336 0.004784330101443188
2985000000.0 1.0039893826310398 0.004604246316937307
2990000000.0 1.0038967673911485 0.0047043856439009015
2995000000.0 1.0038328887537227 0.004463030926667124
3000000000.0 1.0035802050201366 0.004454305551832685
3005000000.0 1.003464082078118 0.004395752527606974
3010000000.0 1.0034695534770637 0.004326413132961993
3015000000.0 1.0032418194094797 0.004173432425142891
3020000000.0 1.0034816171552343 0.003648550339267408
3025000000.0 1.0031238211848867 0.004097558495953218
3030000000.0 1.003132634319578 0.003570885224120577
3035000000.0 1.0029993337912202 0.0034768668507751976
3040000000.0 1.0030435958801085 0.0035674778071995983
3045000000.0 1.0029635224472289 0.00327212009967911
3050000000.0 1.003249217511767 0.00299567365428408
3055000000.0 1.0023073562053344 0.002768618728709324
3060000000.0 1.0025833602992156 0.00302705018425759
3065000000.0 1.0024845408634382 0.0026297193883872624
3070000000.0 1.0022065630288572 0.00290388117493849
3075000000.0 1.0024290976993515 0.0023404877296597792
3080000000.0 1.001823826273588 0.0023232059440334856
3085000000.0 1.0020932171765544 0.0028182002582318555
3090000000.0 1.0022385508778988 0.002468169341346593
3095000000.0 1.0019734148089 0.002315372082478962
3100000000.0 1.001892086316055 0.002344729833347089
3105000000.0 1.002054432025488 0.0023806672980108763
3110000000.0 1.0016931751598557 0.0019991096757928017
3115000000.0 1.001504381196558 0.00199087029941896
3120000000.0 1.0014653497086465 0.001845418283436131
3125000000.0 1.0011331117966928 0.001865569294525274
3130000000.0 1.0012106357067276 0.0015529017728853488
3135000000.0 1.0010548366718903 0.0019775694473248774
3140000000.0 1.0009062718225705 0.0015226475126349141
3145000000.0 1.0006727424443405 0.0014058595361713866
3150000000.0 1.000883639654288 0.0016133788114027709
3155000000.0 1.0007689507375757 0.001606396361288396
3160000000.0 1.0006894068030945 0.0014859058284073948
3165000000.0 1.0006742071694426 0.0012192880341543551
3170000000.0 1.0004352707563606 0.0012243937632816335
3175000000.0 1.0006784754856235 0.0013379997628333992
3180000000.0 1.000549785965342 0.0008879767680931721
3185000000.0 1.000339146891937 0.001160462469975713
3190000000.0 1.0003919298210908 0.001225131183308315
3195000000.0 1.0002513628209573 0.000966743588858223
3200000000.0 1.0002568400498744 0.0008485783878130694
3205000000.0 1.0002320114267997 0.0007329877876073068
3210000000.0 1.0000694438783644 0.0007295754265596791
3215000000.0 0.9998539671564323 0.0008447384452139224
3220000000.0 1.0000393405114856 0.000615623240373188
3225000000.0 0.9999189341274666 0.0007264312454508605
3230000000.0 0.9997987726141002 0.0008675370094663089
3235000000.0 0.9997085193598451 0.0006238324135682866
3240000000.0 0.9996575763756508 0.0005523985856314193
3245000000.0 1.0000311974884704 7.087465001243477e-05
3250000000.0 0.9997606587743505 0.00029057028101962714
3255000000.0 0.9995931649140878 0.0004920094663407859
3260000000.0 0.9997355526516711 0.00046758831875276833
3265000000.0 0.9994808229790411 0.0005673400630100766
3270000000.0 0.9994688411952005 0.0004283831013986614
3275000000.0 0.999381601460917 0.00020748861894650318
3280000000.0 0.9993326261620812 0.00032187986843386503
3285000000.0 0.9992363650718147 0.0004468822698199183
3290000000.0 0.9994417796161457 0.0003531261313792713
3295000000.0 0.9992111671362115 0.00027142111105584046
3300000000.0 0.9993567289408201 1.0875833870697093e-05
3305000000.0 0.9991880466693636 -0.0001569753137019277
3310000000.0 0.9992211292093905 3.974905666913273e-05
3315000000.0 0.9996196381497748 -0.00021373597746133125
3320000000.0 0.9994452118214461 1.8892054944189082e-05
3325000000.0 0.9988577548980077 -0.0004668562457139528
3330000000.0 0.9993149803983327 -0.00019281558565384765
3335000000.0 0.9990690362245411 -0.0003057185430285343
3340000000.0 0.9991330087145733 -0.00016293500815990337
3345000000.0 0.999266330944265 -0.0006751124997040822
3350000000.0 0.9991131486180125 -0.0004567043280165867
3355000000.0 0.9993953683696946 -0.00023071282674146895
3360000000.0 0.9994504683607841 -0.000330482046392901
3365000000.0 0.9995272465276939 -0.00014468832301666235
3370000000.0 0.9997703383961443 -0.0003810175429681224
3375000000.0 0.9992296027698191 -0.0002576997517902446
3380000000.0 0.999234458503202 -0.0004229143847233661
3385000000.0 0.999075882501932 -0.00035899433492792156
3390000000.0 0.9993477646678766 -0.00017505498233033685
3395000000.0 0.9994140808361464 -0.00021977122594157332
3400000000.0 0.999265071749573 -0.00045863510763807585
3405000000.0 0.99946542695875 -0.0003225319570666514
3410000000.0 0.9994609563622916 -0.00048285575973426576
3415000000.0 0.9989959835009783 -0.0002737201954180622
3420000000.0 0.9995275146332331 -0.00035309290963214516
3425000000.0 0.9991048022566974 -0.0006270043029343701
3430000000.0 0.9993167920512362 -0.0004239983822570401
3435000000.0 0.999454684574765 -0.0005732984997511459
3440000000.0 0.9994880303823512 -0.00034230874959536727
3445000000.0 0.9994557875389372 -0.000713193682514127
3450000000.0 0.9995355298810614 -0.00044062191130372767
3455000000.0 0.9994042103608809 -0.0003676923242365712
3460000000.0 0.9995958780795648 -0.00046233587778849984
3465000000.0 0.9997021590573735 -0.00037662049718245545
3470000000.0 0.9996969268068793 -0.00046078398863168404
3475000000.0 0.9997283375182421 -0.0004011480953187313
3480000000.0 0.9997157322856113 -0.00041638862218332614
3485000000.0 0.9997368728886891 -0.0004920964350764316
3490000000.0 0.9998160995342306 -0.0004369169664469072
3495000000.0 0.9997155981221185 -0.00038692787150824596
3500000000.0 0.9997855801889677 -0.0004444993818583382
3505000000.0 0.9997793019478204 -0.0003550725728988217
3510000000.0 0.9999255463472085 -0.00033361249842236166
3515000000.0 0.9999966260486608 -0.00045155509160553595
3520000000.0 1.0000665570172946 -0.0004074020911841233
3525000000.0 1.0001162246585809 -0.00017517535457239132
3530000000.0 1.000427158471906 -0.0001518750695336232
3535000000.0 1.0002270587841917 -0.0004924293626721362
3540000000.0 1.0002079602150082 -0.00024409500739787458
3545000000.0 1.0004668397956442 0.00031694729692366305
3550000000.0 1.0003367493665196 -3.5600384916535736e-05
3555000000.0 1.0004717595353587 3.049132627452892e-05
3560000000.0 1.0004266124684518 0.00012275798392916853
3565000000.0 1.0007142252520538 9.748166325068801e-05
3570000000.0 1.000346872218017 0.00018861681348643944
3575000000.0 1.0009490134185657 0.000336556481427948
3580000000.0 1.0006121517950097 0.0003412934867286967
3585000000.0 1.0006145145520184 0.0002256706446330153
3590000000.0 1.0006729706181043 0.0007868801032793772
3595000000.0 1.0007520861911514 0.0007536873856269908
3600000000.0 1.0009736903262363 0.0006926863077779907
3605000000.0 1.0006069973700218 0.0007249681764683783
3610000000.0 1.001051451545153 0.0008588857053129724
3615000000.0 1.001005061880684 0.0010379405608195447
3620000000.0 1.0012325332161176 0.0007309072963598189
3625000000.0 1.0014005599998668 -5.165665004094211e-07
3630000000.0 1.0010184663775565 0.0010993065039444363
3635000000.0 1.0013547208018523 0.000774084649793234
3640000000.0 1.0014476646157482 0.0009654616309649251
3645000000.0 1.0016668433907736 0.0010654143192069824
3650000000.0 1.0019504967144517 0.0016036143027122166
3655000000.0 1.0018300837998462 0.0012309218896951882
3660000000.0 1.0020193540973357 0.0015864675005240513
3665000000.0 1.0017857929671508 0.0012715929918049635
3670000000.0 1.0023228858239503 0.0016896658026293683
3675000000.0 1.003192823756853 0.001929855708097805
3680000000.0 1.002692941300592 0.001961564780251908
3685000000.0 1.0026704607399752 0.002095284588886143
3690000000.0 1.0026890479271449 0.0023321103862392225
3695000000.0 1.0031547381759132 0.0022088453145853396
3700000000.0 1.0031543368617168 0.0022185036924361975
3705000000.0 1.002957120627885 0.002373892884515381
3710000000.0 1.0032513771560043 0.002462793929841136
3715000000.0 1.003411068914825 0.0026354874936253755
3720000000.0 1.003444090617325 0.0028045994597892744
3725000000.0 1.0036677332899038 0.002811105351142017
3730000000.0 1.0039307074724277 0.003178780152532185
3735000000.0 1.0039268808115267 0.0032711251157469473
3740000000.0 1.0038957998644 0.0033531979626004738
3745000000.0 1.0043377008471723 0.003392350391831742
3750000000.0 1.004342475628902 0.0034145551052220976
3755000000.0 1.0045584154284541 0.003724531994223206
3760000000.0 1.0046544286421606 0.0035864112957688277
3765000000.0 1.0047302135545884 0.003922420513946267
3770000000.0 1.004996039172801 0.004057531869804296
3775000000.0 1.0052133848311846 0.004142391183774293
3780000000.0 1.0054255329646244 0.00445435022880263
3785000000.0 1.0053302427230615 0.004281568824603828
3790000000.0 1.0057214489185677 0.004876224977327981
3795000000.0 1.005737195962408 0.0047132707083887325
3800000000.0 1.0057192315515113 0.0049979094789502675
3805000000.0 1.0060952730893107 0.0053372841661489005
3810000000.0 1.0061167503909134 0.005126319680279311
3815000000.0 1.0063397317136435 0.0049569664388501135
3820000000.0 1.0064185610530867 0.005437524565179774
3825000000.0 1.0068316662957004 0.005344287272016917
3830000000.0 1.0068950895633042 0.005450183678689693
3835000000.0 1.0069475234816487 0.0054845969246710945
3840000000.0 1.0069780581943442 0.005533172740440521
3845000000.0 1.0073859639733567 0.0058033835521293115
3850000000.0 1.0075320891685087 0.005816776168532301
3855000000.0 1.0076087860468488 0.00603015895683018
3860000000.0 1.0077665248565688 0.006151607481352161
3865000000.0 1.0083024913930039 0.005911451217259733
3870000000.0 1.0082093737060083 0.006278048717976623
3875000000.0 1.0084301451156397 0.006316940640440679
3880000000.0 1.008711823519572 0.006503746074682467
3885000000.0 1.0087152870669156 0.006451816469527899
3890000000.0 1.0088134780107758 0.006549749206591367
3895000000.0 1.0094929690297634 0.006376891197581123
3900000000.0 1.0093691602577555 0.006796229536685197
3905000000.0 1.0093752387624337 0.006711282983329582
3910000000.0 1.0094717261687982 0.006871039200817483
3915000000.0 1.0097441011189296 0.0072223117995233455
3920000000.0 1.010010734290691 0.0068052149543346
3925000000.0 1.0101374418786073 0.006752356488192383
3930000000.0 1.0102274872121613 0.007128864423761506
3935000000.0 1.0104759581854437 0.0072029273123012955
3940000000.0 1.0107803796076955 0.006876455942995128
3945000000.0 1.010781844440795 0.007092838794000586
3950000000.0 1.0110511644729507 0.007449725996459859
3955000000.0 1.011172685671721 0.007359883132219826
3960000000.0 1.0111805789417008 0.007610741365696323
3965000000.0 1.0116904606909178 0.0075403179954111384
3970000000.0 1.0116739247796285 0.007680625135299555
3975000000.0 1.0117409954568044 0.007545232470322604
3980000000.0 1.0119769236173435 0.007928281633342487
3985000000.0 1.0123163418899184 0.007664975938895827
3990000000.0 1.0122471374083273 0.007876337370587308
3995000000.0 1.012544864320913 0.007876606984871913
4000000000.0 1.0126348335869324 0.007967805353943059
4005000000.0 1.0129656407506968 0.00798597438167984
4010000000.0 1.0130337284251978 0.00833171264402499
4015000000.0 1.0132844163976307 0.008226514991735618
4020000000.0 1.0135759775394846 0.00829992566712658
4025000000.0 1.0136164815249558 0.008468864293902532
4030000000.0 1.0137559483558154 0.008414586654025802
4035000000.0 1.013735508226962 0.008456579783317333
4040000000.0 1.0139792616032364 0.008577435516933477
4045000000.0 1.0141773727868324 0.008726997066841899
4050000000.0 1.0143245591993395 0.008721071337153859
4055000000.0 1.0144797186789667 0.008648206978373974
4060000000.0 1.014695618786152 0.008645594206898682
4065000000.0 1.0148252036269219 0.008718053028001984
4070000000.0 1.014977628669653 0.008856729918025953
4075000000.0 1.0151441000197854 0.008947389467372337
4080000000.0 1.0153103739557379 0.009108501543761506
4085000000.0 1.015243883331811 0.009156078815370143
4090000000.0 1.0154898987550325 0.009065186607219241
4095000000.0 1.015654034381868 0.009117796512145808
4100000000.0 1.0159170464185998 0.009265746197611557
4105000000.0 1.0160419380918646 0.009474332349021803
4110000000.0 1.0161384283527997 0.00950152928873429
4115000000.0 1.0162002641090568 0.00962764336378409
4120000000.0 1.0165886952926975 0.009427707329939087
4125000000.0 1.0165961635451572 0.009679071106524342
4130000000.0 1.0164973922467924 0.00961974151101676
4135000000.0 1.0169995527001285 0.00988072713626222
4140000000.0 1.0169432803484435 0.010016653570879141
4145000000.0 1.0171458492701346 0.009971963312669906
4150000000.0 1.0171582047331182 0.010077000448284449
4155000000.0 1.0175189449728066 0.01030144772421037
4160000000.0 1.017633699334442 0.010107123449858315
4165000000.0 1.0174745534463645 0.01024988168289353
4170000000.0 1.0178754332600137 0.010502060773551657
4175000000.0 1.0175349241475529 0.010439960188805594
4180000000.0 1.0181251028197227 0.010472325195989928
4185000000.0 1.018078514335394 0.01028852170560799
4190000000.0 1.0181905677873673 0.01048092619849912
4195000000.0 1.0184095497125496 0.010668699984853158
4200000000.0 1.0184327825955692 0.010745596099201015
4205000000.0 1.018494658042442 0.010578224244975084
4210000000.0 1.018580033253781 0.010909063897913348
4215000000.0 1.0187336787509704 0.011173268278206418
4220000000.0 1.0189921290295825 0.011151838444013448
4225000000.0 1.0191422711573719 0.01150424582639658
4230000000.0 1.018942353599787 0.011173970361126235
4235000000.0 1.018924527811763 0.011482033782575033
4240000000.0 1.019210741558144 0.011400466777652284
4245000000.0 1.0192570083699977 0.011090108805512078
4250000000.0 1.0191469823824524 0.011565132921896848
4255000000.0 1.0188221598945573 0.011620640931295343
4260000000.0 1.0194305411010067 0.011996064011293559
4265000000.0 1.0189736054941556 0.011833041721246532
4270000000.0 1.0194324566650557 0.012184492423662457
4275000000.0 1.0194992537734477 0.012117168537681033
4280000000.0 1.0193081773159307 0.012098895886649773
4285000000.0 1.0194749903130291 0.011966609841439518
4290000000.0 1.0195054279522857 0.012347736953264157
4295000000.0 1.0195363203897612 0.012390587270105719
4300000000.0 1.0194699743472941 0.012388212582335544
4305000000.0 1.019335155059703 0.012360147783084752
4310000000.0 1.019402231183019 0.012741818086217147
4315000000.0 1.0194645191161344 0.012682221685054708
4320000000.0 1.0195034697264622 0.012595290807172792
4325000000.0 1.0194408714272591 0.012510297536324015
4330000000.0 1.0194850380789684 0.012642979335956109
4335000000.0 1.0193301130712225 0.012546101218745982
4340000000.0 1.0192659315483295 0.012841348411618572
4345000000.0 1.0193732044285029 0.012665943223374911
4350000000.0 1.0192669024303767 0.012990447493730854
4355000000.0 1.0193206823453727 0.012957797042930668
4360000000.0 1.0191701043523962 0.012849250777229385
4365000000.0 1.019008718452851 0.013200021689467644
4370000000.0 1.0191902819567977 0.012914449397202248
4375000000.0 1.0193735821940098 0.013202095675192215
4380000000.0 1.0189602902046146 0.013036438703489367
4385000000.0 1.019086531603042 0.012831479958223044
4390000000.0 1.018751081648373 0.013071671854575613
4395000000.0 1.0188918294013254 0.013097669057532223
4400000000.0 1.0189389699445832 0.01291222676691127
4405000000.0 1.018306351709293 0.01346641904003884
4410000000.0 1.018265530793068 0.012873132420739538
4415000000.0 1.0185808059417805 0.01272189832749705
4420000000.0 1.0182328110175427 0.013114289199979555
4425000000.0 1.0180504556549508 0.013020811871210123
4430000000.0 1.0181443571957889 0.012968793956121232
4435000000.0 1.0178828504678632 0.01278184982807796
4440000000.0 1.0176904039817478 0.01329404189627551
4445000000.0 1.017399312577391 0.013042657287550243
4450000000.0 1.0177410305244015 0.012601308410290626
4455000000.0 1.0177525883161918 0.012797915767610904
4460000000.0 1.01717505220096 0.013056061355555888
4465000000.0 1.0171083136143027 0.012708884754901105
4470000000.0 1.0171520190070922 0.012736710034125465
4475000000.0 1.0168646156441536 0.012926979664104882
4480000000.0 1.016690849737867 0.012268533955240754
4485000000.0 1.016765594659401 0.012646499044884924
4490000000.0 1.0161626646056052 0.0125159185401679
4495000000.0 1.0158322229492922 0.012324237526919583
4500000000.0 1.0157996826696023 0.011957570519912065
4505000000.0 1.015858079957496 0.012009010681698145
4510000000.0 1.0154690525476417 0.012386185702744718
4515000000.0 1.0151064061897273 0.012026008005411155
4520000000.0 1.0153032503022188 0.012011620466864513
4525000000.0 1.0152827000557694 0.011427584320689632
4530000000.0 1.0149223222962485 0.011807192121318026
4535000000.0 1.0150416680850385 0.01150872629315852
4540000000.0 1.0144511990379417 0.011176997072346066
4545000000.0 1.0141347572253112 0.011526559401073765
4550000000.0 1.0140095016150272 0.011037365375356023
4555000000.0 1.0138199744353684 0.010928986500289145
4560000000.0 1.013762222637394 0.010791615069424259
4565000000.0 1.0130859195067885 0.010341428081993814
4570000000.0 1.0133526870371128 0.010561185078467691
4575000000.0 1.0128444805227603 0.010434683115111504
4580000000.0 1.0130104061445564 0.010299162182342593
4585000000.0 1.0123252414402646 0.009956222604482336
4590000000.0 1.0125416601220536 0.009966568897059155
4595000000.0 1.012114293991673 0.00971930274552242
4600000000.0 1.0119149309619038 0.009573889429781162
4605000000.0 1.0117189063084757 0.009366182695713543
4610000000.0 1.0114649844127908 0.00921605476403121
4615000000.0 1.0113572624933147 0.009042949704841577
4620000000.0 1.0111319726060117 0.008902178925481232
4625000000.0 1.010913116764994 0.008685750956051723
4630000000.0 1.0106870346069745 0.008544239186903007
4635000000.0 1.0105288529648875 0.008399425623598996
4640000000.0 1.0102579001026795 0.008104802162460033
4645000000.0 1.0100426380691216 0.007987439575819204
4650000000.0 1.009657135903896 0.0077825706536480315
4655000000.0 1.0095246597411611 0.00765863886451952
4660000000.0 1.0094431434994073 0.007571665074899736
4665000000.0 1.009355129013145 0.007609167166894479
4670000000.0 1.0090347922617469 0.00726281335009867
4675000000.0 1.0088292289036778 0.006916751857209273
4680000000.0 1.0086828945076767 0.006840638179521765
4685000000.0 1.0084186597139073 0.006528154107468556
4690000000.0 1.0081940791957906 0.006614961493493468
4695000000.0 1.008030752963428 0.006280822564476226
4700000000.0 1.0076518790874498 0.006214131171220046
4705000000.0 1.0076293052643002 0.005670376799795327
4710000000.0 1.007604762563822 0.006024041930187471
4715000000.0 1.0069956384286625 0.005706983890518407
4720000000.0 1.0068399841876559 0.005168488808474521
4725000000.0 1.0070635100916099 0.005777038581517029
4730000000.0 1.0070204413109312 0.005622992800720945
4735000000.0 1.0065101319844059 0.004985675288725083
4740000000.0 1.0064507577469937 0.004834713695677482
4745000000.0 1.006086808123982 0.00469437918317614
4750000000.0 1.0062798192008873 0.004679570014423887
4755000000.0 1.0056888497241172 0.004604409512003029
4760000000.0 1.0057722292242526 0.004285679027589893
4765000000.0 1.0054897182933733 0.003763080760511485
4770000000.0 1.005234370039551 0.004324045126512056
4775000000.0 1.0053598360789946 0.0034249691628069384
4780000000.0 1.0049270240293349 0.0035937869228831495
4785000000.0 1.004853824536455 0.0032868129091080246
4790000000.0 1.0045668724601073 0.0033355192889090797
4795000000.0 1.0045155503600902 0.003053064427953967
4800000000.0 1.0045240287257189 0.0029600724050103428
4805000000.0 1.004233756176333 0.0025327260561725027
4810000000.0 1.0041172257252096 0.002842833704431255
4815000000.0 1.0039926536277617 0.00235687132908498
4820000000.0 1.003954579666418 0.0022584874408140125
4825000000.0 1.0036057944436725 0.001914231216181326
4830000000.0 1.0036462953543581 0.0017608401795525701
4835000000.0 1.0034664206748753 0.0016023486650116846
4840000000.0 1.0033502485749277 0.0015001218309383725
4845000000.0 1.0031935582702078 0.001143513306962877
4850000000.0 1.0030707809878547 0.0010301813097053523
4855000000.0 1.0029812442902488 0.0009348890878751041
4860000000.0 1.0026534954905302 0.000819020323728171
4865000000.0 1.0026241351520444 0.0008898136525532211
4870000000.0 1.002551016470454 0.0006066263260587102
4875000000.0 1.0024662879806732 0.0005336095900640638
4880000000.0 1.0023340569837227 0.00032600620202424797
4885000000.0 1.001947712483265 0.00023482048551067637
4890000000.0 1.0020291184434653 0.00015218399544087666
4895000000.0 1.002169250442527 0.00013840668765498345
4900000000.0 1.0020226840092936 0.00010957028657066115
4905000000.0 1.001682794677999 -0.00010325654377220617
4910000000.0 1.0014711739596478 -0.0003036711594667275
4915000000.0 1.001445243727282 -0.0002695371646269782
4920000000.0 1.00156431201935 -0.0005625438532673516
4925000000.0 1.0011190757776993 -0.0003585921699304899
4930000000.0 1.001207852771607 -0.0004179324246496484
4935000000.0 1.0009135477653612 -0.000533600200457623
4940000000.0 1.0008460334313092 -0.000522846520131523
4945000000.0 1.0012575451170527 -0.0004796403327889137
4950000000.0 1.0007948659810688 -0.0006545060282775038
4955000000.0 1.000836882018889 -0.0008225132439888016
4960000000.0 1.0008047921822634 -0.0007457095421546583
4965000000.0 1.0006940838624192 -0.0007954332865355991
4970000000.0 1.0007313879722186 -0.0008512257393245936
4975000000.0 1.0006626489776191 -0.0010013535923785858
4980000000.0 1.0005144679675722 -0.001069884931979171
4985000000.0 1.0001380498203816 -0.001183449638441252
4990000000.0 1.0005274403199915 -0.0010770198912089942
4995000000.0 1.0004844094162375 -0.0012813911172297743
5000000000.0 1.0006570619431436 -0.001586747786579806
5005000000.0 1.0004789577627797 -0.0013135071885944569
5010000000.0 1.0006708997688363 -0.0017895843310051756
5015000000.0 1.000571529669978 -0.0015106173602788852
5020000000.0 1.000353958921231 -0.0014222778636155723
5025000000.0 1.0002544828686797 -0.0015668084484742294
5030000000.0 1.000221943111753 -0.001604477915764572
5035000000.0 1.000172483223982 -0.0017361088944887826
5040000000.0 1.000178456611839 -0.0015189434854189967
5045000000.0 1.0000813154039712 -0.0016581367551784416
5050000000.0 1.0003629622306454 -0.0017136529267138215
5055000000.0 1.0005837308933865 -0.00174928577967117
5060000000.0 1.000154466845485 -0.0016872316723726263
5065000000.0 1.0001919760472748 -0.001615056595246211
5070000000.0 1.0001334493773053 -0.0018925449825761226
5075000000.0 1.0002687331877174 -0.0019117033641050038
5080000000.0 0.9999385423573027 -0.0021393946160498667
5085000000.0 1.0000148522910661 -0.0015669894203652408
5090000000.0 1.0002592635569298 -0.0017982566342827104
5095000000.0 1.0000434192060421 -0.0020302145499541944
5100000000.0 1.000169559536841 -0.0018658830541796408
5105000000.0 1.0002110002680968 -0.0011831143574538698
5110000000.0 1.000365074520176 -0.0018033716014749276
5115000000.0 1.0000876367256375 -0.0018348968886244264
5120000000.0 1.0002338547078993 -0.0017353070352275704
5125000000.0 1.000230753929581 -0.0015338464677872154
5130000000.0 1.0003263268796456 -0.0015188793983176023
5135000000.0 1.0004363160449141 -0.001639842905920749
5140000000.0 1.0004549029748684 -0.0014053288721254404
5145000000.0 1.0003341004295847 -0.0016062391433416734
5150000000.0 1.0003604252490235 -0.001546080404582957
5155000000.0 1.0005144357357003 -0.001374591218350233
5160000000.0 1.0004729481986907 -0.0014712671615687062
5165000000.0 1.0006295109633991 -0.0013187752247649834
5170000000.0 1.0006901769140844 -0.0012756546706906484
5175000000.0 1.0006233366137742 -0.0010712084791861603
5180000000.0 1.000853320424586 -0.0012571789741572107
5185000000.0 1.0009790550546864 -0.001072854493318323
5190000000.0 1.0008930989707276 -0.0009812838476352737
5195000000.0 1.0011564094411414 -0.001001137188345305
5200000000.0 1.0011788373813526 -0.0008978790011309786
5205000000.0 1.001242314576916 -0.0007820518680731537
5210000000.0 1.001279040504892 -0.0007346289395116292
5215000000.0 1.001375298394605 -0.000681063798050973
5220000000.0 1.0014106968730154 -0.0005163618794553997
5225000000.0 1.0014209592323027 -0.000567443661732719
5230000000.0 1.0016727261683882 -0.0003283950634135684
5235000000.0 1.001713214867232 -0.00033234687838778603
5240000000.0 1.0017481110525959 -0.00013388835118741078
5245000000.0 1.0016832847336055 -0.0001027157164447095
5250000000.0 1.0017531562246316 -0.0001661295811457149
5255000000.0 1.0017423643209278 0.0002268206992828057
5260000000.0 1.0021011541000366 0.00022783495488313442
5265000000.0 1.0022212848000254 0.00038824481483263094
5270000000.0 1.0022120686818554 0.00045064902577984534
5275000000.0 1.0024258041306835 0.0004384104955273499
5280000000.0 1.002283453575002 0.0005946896194273899
5285000000.0 1.0022410101718005 0.0009389504308980594
5290000000.0 1.0024488325511964 0.0009471479619034195
5295000000.0 1.0028810427201271 0.0010760513066962675
5300000000.0 1.002831389746771 0.0011420109987446412
5305000000.0 1.002631794895873 0.0010831843539893784
5310000000.0 1.0031288389025192 0.0012990223193913035
5315000000.0 1.0031929192393252 0.0016824185655196645
5320000000.0 1.002982171267591 0.0016929230073988975
5325000000.0 1.0034373952749083 0.002187658646973653
5330000000.0 1.0033754752064592 0.0021365741913189325
5335000000.0 1.003646599897955 0.0021857649267145456
5340000000.0 1.0038076103788218 0.0024865043405113644
5345000000.0 1.0042022983847065 0.0027229158549590764
5350000000.0 1.003963215703999 0.002716197628588112
5355000000.0 1.0039487503251496 0.002914235997742896
5360000000.0 1.0042453889522567 0.003072789146512662
5365000000.0 1.0040281864166725 0.0035436685738439557
5370000000.0 1.0044407254460228 0.003458616557220742
5375000000.0 1.0045428129789375 0.003836752061726993
5380000000.0 1.0046133384714597 0.0037880074786897457
5385000000.0 1.0047799983204122 0.003936640989025595
5390000000.0 1.0050208338991753 0.004132503944966292
5395000000.0 1.0050052457320287 0.004223440597315147
5400000000.0 1.005316439543761 0.004363679683883377
5405000000.0 1.005293652648083 0.004472149196480413
5410000000.0 1.0054910938724166 0.004721665808113744
5415000000.0 1.0056376190614553 0.004803264123007698
5420000000.0 1.0057841454344287 0.005005333584893916
5425000000.0 1.0059622313076475 0.0052210275949967485
5430000000.0 1.006065608228703 0.0052793724344465
5435000000.0 1.0061320452486051 0.005447068125450879
5440000000.0 1.0062483995212763 0.00563546022456963
5445000000.0 1.0065543184413515 0.005749665313209089
5450000000.0 1.0066370066562034 0.006010423424452528
5455000000.0 1.0068195604718166 0.006042073805719146
5460000000.0 1.0069186205050216 0.006188903702129704
5465000000.0 1.007155176100977 0.0063303145668121485
5470000000.0 1.0072453612542438 0.006482297809906827
5475000000.0 1.0073979342700556 0.006733866513237029
5480000000.0 1.0075247186630967 0.006779859286816326
5485000000.0 1.0078332035811846 0.006796497681969803
5490000000.0 1.0079885979220378 0.00694456160709879
5495000000.0 1.008276722683171 0.007075749266784435
5500000000.0 1.0084053638954806 0.007393822903233354
5505000000.0 1.0083274416169508 0.007370627340972081
5510000000.0 1.0086405256199642 0.007650555593824712
5515000000.0 1.008709258607511 0.007870101669416558
5520000000.0 1.0088885756441788 0.007775750149771042
5525000000.0 1.0090779484429073 0.007868996551671652
5530000000.0 1.0089842460038487 0.007839396158815869
5535000000.0 1.0094180117433493 0.00826651229739354
5540000000.0 1.009738935769455 0.008322116065098846
5545000000.0 1.0098512589753605 0.008410307849147486
5550000000.0 1.0099573224149188 0.00843791180877909
5555000000.0 1.010145986363962 0.008458554175420286
5560000000.0 1.0102992755896716 0.008528279366754689
5565000000.0 1.010529092423339 0.00925796836854184
5570000000.0 1.0105319945739955 0.008876573689367714
5575000000.0 1.0103754184763063 0.009204059512230895
5580000000.0 1.0110134117215483 0.009001152107665873
5585000000.0 1.0107509521186941 0.009257926083929486
5590000000.0 1.0115201390868975 0.009162954824356988
5595000000.0 1.0114300953109385 0.009340079040054123
5600000000.0 1.0115839202507806 0.009060976233953225
5605000000.0 1.0118911839518168 0.00973696055612296
5610000000.0 1.0120909913338085 0.009663071087541638
5615000000.0 1.011866049236739 0.009829384222695121
5620000000.0 1.0123632752215657 0.00978059248384582
5625000000.0 1.0122188875399076 0.00912090001436922
5630000000.0 1.013156972364183 0.009903087734614253
5635000000.0 1.0130476267957371 0.009690092563314613
5640000000.0 1.0129495384503164 0.00950793076315359
5645000000.0 1.0135866326274274 0.009604863349977982
5650000000.0 1.0139325159006218 0.010038694931069389
5655000000.0 1.0139804775123404 0.009913747090249468
5660000000.0 1.0138595950308205 0.010194768838159349
5665000000.0 1.0141220103382986 0.010299476267452005
5670000000.0 1.0142533416672714 0.009925902801313844
5675000000.0 1.0143802289039283 0.010078926872628291
5680000000.0 1.0145506645009514 0.009980073183117645
5685000000.0 1.0149902352141598 0.010033887897196102
5690000000.0 1.015096505604271 0.010125014518423528
5695000000.0 1.0147752198905413 0.0105702414530829
5700000000.0 1.0152903101528612 0.010313304327067181
5705000000.0 1.0159079607313584 0.010283834005500064
5710000000.0 1.0158600829354554 0.010209011307354555
5715000000.0 1.0158929474916079 0.010518498161480016
5720000000.0 1.016125634174434 0.010444407387700378
5725000000.0 1.0161692885683935 0.01009891961974285
5730000000.0 1.0165424758874897 0.01049686484723895
5735000000.0 1.0165550137341484 0.010825164755688538
5740000000.0 1.0169503495615153 0.010521837746326422
5745000000.0 1.0168404558912922 0.010470275192121126
5750000000.0 1.0172331131919188 0.010592325509755467
5755000000.0 1.0173831928268107 0.010671609767512264
5760000000.0 1.017660425783129 0.010621164537067622
5765000000.0 1.0177700535504883 0.010697382761629176
5770000000.0 1.0179371360825809 0.010655113063855233
5775000000.0 1.0181380946383778 0.010608420910921878
5780000000.0 1.0183555733711973 0.010628855898049561
5785000000.0 1.0186712360014072 0.010538816652160027
5790000000.0 1.0186535161410313 0.010728398189561391
5795000000.0 1.0189596107556333 0.010567849184018709
5800000000.0 1.0191058584961354 0.010591943526323618
5805000000.0 1.0192853600862277 0.010762650279625375
5810000000.0 1.0194479146952726 0.010507119857687026
5815000000.0 1.0197130922137285 0.010416131157012414
5820000000.0 1.0199910046000806 0.010571860368088649
5825000000.0 1.0198124881850301 0.01048436913515741
5830000000.0 1.0202975353455384 0.010573376811691492
5835000000.0 1.0205060338633636 0.010474722588776833
5840000000.0 1.0207739260787212 0.010553549968790859
5845000000.0 1.020781299000403 0.010814158657340155
5850000000.0 1.0210745764013989 0.010521158253349625
5855000000.0 1.0211881894839252 0.010704275601235762
5860000000.0 1.021251672731178 0.010401376317623766
5865000000.0 1.0210398215629997 0.01088211235901811
5870000000.0 1.0215452931664495 0.010258449186532567
5875000000.0 1.022068822123747 0.010752454730009004
5880000000.0 1.0221698461303608 0.010537502054087192
5885000000.0 1.0223272937681283 0.010657201471348564
5890000000.0 1.0225912734183955 0.010626901611686258
5895000000.0 1.0229123306276333 0.010981033437538337
5900000000.0 1.0226406944369442 0.010880974935223024
5905000000.0 1.0236417443457262 0.010763367392586121
5910000000.0 1.0233560120865657 0.010597255713388177
5915000000.0 1.023373405979201 0.010806405060939762
5920000000.0 1.0234559658770979 0.010632119534366165
5925000000.0 1.0240398874831182 0.010610896379772763
5930000000.0 1.0241611449244636 0.010378533014106324
5935000000.0 1.0244849808481202 0.011003426229660884
5940000000.0 1.0243104167931993 0.010501748759371671
5945000000.0 1.02455548208563 0.010308506689038167
5950000000.0 1.0244492108555439 0.010608829086795895
5955000000.0 1.025190057469515 0.010554870540384849
5960000000.0 1.0247715515186062 0.010574636442022773
5965000000.0 1.0249736306989259 0.010656862324477344
5970000000.0 1.0254917720137875 0.010525821523584653
5975000000.0 1.025099895599056 0.011006285360871967
5980000000.0 1.0255412391162047 0.010504900980080011
5985000000.0 1.0257729238604696 0.01042229514071403
5990000000.0 1.0259380742620845 0.010750656294645491
5995000000.0 1.0260537757092003 0.010772101159765604
6000000000.0 1.0257707477869558 0.010463156401484963
