! Created with skrf 1.12.0 (http://scikit-rf.org).
# Hz S RI R 50.0 
!freq ReS11 ImS11
!
100000000.0 -1.0013979832223447 -0.0018704123323657767
105000000.0 -1.0014838027724327 -0.0018814097619028272
110000000.0 -1.0013459624458532 -0.001974931582666658
115000000.0 -1.0013991166475376 -0.0020080694232655883
120000000.0 -1.0014671377396285 -0.001962183701836494
125000000.0 -1.0013520510737124 -0.0019857443515532685
130000000.0 -1.0014932791389557 -0.0019202143932386844
135000000.0 -1.0015343833726906 -0.0021166301775960563
140000000.0 -1.0014808574417746 -0.0022299047611447575
145000000.0 -1.0014652368504458 -0.0021149109392687177
150000000.0 -1.0016084138778338 -0.002280482920332644
155000000.0 -1.0015681053353502 -0.002279796799443777
160000000.0 -1.0016247928402178 -0.002280957255824731
165000000.0 -1.0015474363575712 -0.0023314567546981
170000000.0 -1.001480293247407 -0.002254112219221369
175000000.0 -1.0015611757015832 -0.0023188327585956406
180000000.0 -1.001551762737217 -0.0021959058181574955
185000000.0 -1.0015912227089732 -0.002514883680938965
190000000.0 -1.0016613221393216 -0.002405270261359618
195000000.0 -1.001765694254434 -0.002345462633590118
200000000.0 -1.0017261575407848 -0.0024279796919967744
205000000.0 -1.00179293420606 -0.0024253090255893345
210000000.0 -1.0016385714054323 -0.0025273798254622725
215000000.0 -1.0017849491297786 -0.002472375587766954
220000000.0 -1.001674058255258 -0.0024399688651680846
225000000.0 -1.0016914737183753 -0.002494610447683604
230000000.0 -1.001630771236109 -0.0024386921381844475
235000000.0 -1.0017277700265177 -0.002524073216555672
240000000.0 -1.0017993411342603 -0.002601903603146187
245000000.0 -1.0018667166800435 -0.0025649383520017187
250000000.0 -1.0016943108149008 -0.00253559760434131
255000000.0 -1.001664640288018 -0.002662934694635466
260000000.0 -1.0017337039185998 -0.002534421013026798
265000000.0 -1.0019464066972998 -0.002596095033264875
270000000.0 -1.001812809311468 -0.0026332368250780247
275000000.0 -1.0018668747297095 -0.002631245642957487
280000000.0 -1.0017824342494848 -0.0025540395362870206
285000000.0 -1.0018680496288563 -0.0026859275109092804
290000000.0 -1.0019884791286402 -0.002682542890502662
295000000.0 -1.0018499508046574 -0.002677992936213983
300000000.0 -1.0018200086018558 -0.0028101883530653117
305000000.0 -1.001876564481514 -0.0026122461445981624
310000000.0 -1.0018481438755393 -0.0026009112724411834
315000000.0 -1.0019617804016159 -0.0026745495035260265
320000000.0 -1.0018435204564733 -0.0026290335792455016
325000000.0 -1.0019478504597568 -0.0026519360706458266
330000000.0 -1.0018345969838072 -0.0026341508795854254
335000000.0 -1.0018548065003445 -0.0027570067314789436
340000000.0 -1.001878746065762 -0.0026947167778605986
345000000.0 -1.001863566423268 -0.002664652585626953
350000000.0 -1.0017768066318822 -0.0026342087429399143
355000000.0 -1.0019495374619412 -0.0026226840494408834
360000000.0 -1.00187174245092 -0.0026168498968946515
365000000.0 -1.0018669520302679 -0.00274042844662014
370000000.0 -1.0018121632061678 -0.00271420837153783
375000000.0 -1.0019106304009007 -0.0026782250827394826
380000000.0 -1.001924275327306 -0.0025655403731004787
385000000.0 -1.0019231024687818 -0.002632180230257376
390000000.0 -1.0019938013774088 -0.002722500229561976
395000000.0 -1.0018650858898352 -0.002720664191169848
400000000.0 -1.0019735845650428 -0.0027065313403644153
405000000.0 -1.0018791382641992 -0.0026602175314221167
410000000.0 -1.0019255313975648 -0.002703935868348099
415000000.0 -1.001946305410184 -0.0026913310625558493
420000000.0 -1.0018743422793337 -0.002669979543490887
425000000.0 -1.0017840868057235 -0.0027202169308327287
430000000.0 -1.0017679553126215 -0.002698562561380835
435000000.0 -1.0019425090034921 -0.002548449499088329
440000000.0 -1.0018273502983424 -0.0025868165916415812
445000000.0 -1.001960759972832 -0.0026596822872550167
450000000.0 -1.00194559728696 -0.002660673793246671
455000000.0 -1.001986207074386 -0.0026419119936260406
460000000.0 -1.0017686596832387 -0.0026215986373655667
465000000.0 -1.0019792962993035 -0.0024858837497284737
470000000.0 -1.0018347011957058 -0.0026211070195441975
475000000.0 -1.0017966384813242 -0.002552397212627092
480000000.0 -1.001811702841241 -0.00255070457631364
485000000.0 -1.0018049564483278 -0.0025016772074797603
490000000.0 -1.0017954489276544 -0.002563969081744329
495000000.0 -1.0017901121585906 -0.0024913416831822736
500000000.0 -1.0017814019600937 -0.00251940011796874
505000000.0 -1.0017953940794277 -0.0024581862768970736
510000000.0 -1.0019021788069744 -0.0025208055180353907
515000000.0 -1.0017001439706321 -0.0025304024127871445
520000000.0 -1.0017845328645376 -0.0025388508114713797
525000000.0 -1.0016515710928688 -0.002446976906540268
530000000.0 -1.0016828953152497 -0.0024778405881945007
535000000.0 -1.0017665057309109 -0.0025059172793084326
540000000.0 -1.0017129282751092 -0.0025602087700096567
545000000.0 -1.0016429329720618 -0.0024787382124649886
550000000.0 -1.0016539047285657 -0.0023916512526958793
555000000.0 -1.0017367209728305 -0.002351094483849322
560000000.0 -1.0017943434764311 -0.0025425649511629515
565000000.0 -1.0016660398163475 -0.002406243125746436
570000000.0 -1.0016642867751215 -0.0024446653227162027
575000000.0 -1.0017461596271717 -0.002406418108962922
580000000.0 -1.0015343460752837 -0.00234441404662678
585000000.0 -1.0016671483721171 -0.0022025748695443975
590000000.0 -1.0016224606817645 -0.0024182882274459837
595000000.0 -1.0016322309549115 -0.0022949247278122448
600000000.0 -1.001557085177067 -0.0022533411108977986
605000000.0 -1.0015910671793187 -0.002287785509181057
610000000.0 -1.0015398855368705 -0.002176284415003486
615000000.0 -1.001527228176691 -0.0021842452852860257
620000000.0 -1.0016886698951764 -0.002113704435933666
625000000.0 -1.0014868601604725 -0.002122822298350365
630000000.0 -1.0014932602119258 -0.002150925315441988
635000000.0 -1.001452486724526 -0.0021338134691007335
640000000.0 -1.001447477812741 -0.002114436469594955
645000000.0 -1.0014233545802047 -0.00215811602841268
650000000.0 -1.0014414140325394 -0.002063508720419792
655000000.0 -1.0013941722688957 -0.0019184863338706545
660000000.0 -1.0014154712629317 -0.002050224364678651
665000000.0 -1.0015308990902916 -0.0020218982258610606
670000000.0 -1.0014058573348785 -0.0020077333821290418
675000000.0 -1.0013829138724584 -0.0019487183071237868
680000000.0 -1.0012703481380751 -0.0019719688896316467
685000000.0 -1.0013793315594208 -0.001918842405283993
690000000.0 -1.001350967801782 -0.0019155548216175412
695000000.0 -1.0013554794866704 -0.0019662817520856362
700000000.0 -1.0013301270109145 -0.0018413269178635893
705000000.0 -1.0012223908972342 -0.0019033212198990108
710000000.0 -1.0012587367399761 -0.001900279705463134
715000000.0 -1.0012935218576968 -0.0018386556921100403
720000000.0 -1.001230968196595 -0.0017513938331634054
725000000.0 -1.0011537064038705 -0.0017293469381568355
730000000.0 -1.0013700648714143 -0.0018151495099248392
735000000.0 -1.0012710837724226 -0.0016959092985489779
740000000.0 -1.001328361833059 -0.00176080928273322
745000000.0 -1.0012223865705996 -0.0016882952315218224
750000000.0 -1.0011660960334043 -0.0017411106639706475
755000000.0 -1.0012464940218095 -0.0016356309924942035
760000000.0 -1.0012729737803097 -0.001707673552035296
765000000.0 -1.0013317659762044 -0.0016467106333746644
770000000.0 -1.0012693403061166 -0.0016379226527103233
775000000.0 -1.0012858287114135 -0.0015829708223405994
780000000.0 -1.001156253888322 -0.001481472012531507
785000000.0 -1.001117084636372 -0.001460516550249749
790000000.0 -1.0010365724620052 -0.0014342967896516217
795000000.0 -1.0013178507925753 -0.0014145845541278822
800000000.0 -1.0012254172913737 -0.0014449822995770813
805000000.0 -1.0012223509136189 -0.0014562839812615979
810000000.0 -1.0011981911152616 -0.0014283599517894664
815000000.0 -1.0012667413166982 -0.0015100505735011842
820000000.0 -1.0012211209850537 -0.0014072832994059177
825000000.0 -1.001212023537909 -0.0013620465587503507
830000000.0 -1.0012545178001315 -0.0014652955587130332
835000000.0 -1.001132069919151 -0.0014008503484032695
840000000.0 -1.0011606633179735 -0.0013767942864754564
845000000.0 -1.00120126871441 -0.0012979187599020093
850000000.0 -1.001196766477465 -0.0012684514074396552
855000000.0 -1.0012673502245686 -0.0013935601506901733
860000000.0 -1.0011966171900275 -0.0013220096617733918
865000000.0 -1.0012359041562866 -0.001316749169834792
870000000.0 -1.0011741061570667 -0.001337828688079882
875000000.0 -1.0011560780645297 -0.0012351652661698968
880000000.0 -1.0011988974702726 -0.0013293518568261798
885000000.0 -1.0012716563571054 -0.0013600131452543816
890000000.0 -1.001166942339311 -0.001391970086824947
895000000.0 -1.0012147241027218 -0.0013243576823657752
900000000.0 -1.0013597674091244 -0.0012678190205122125
905000000.0 -1.0012821530153304 -0.001263334352872974
910000000.0 -1.0012698733116958 -0.0013841268979222765
915000000.0 -1.0013563049944518 -0.0012538505199773124
920000000.0 -1.0012918563790087 -0.0012685893560491503
925000000.0 -1.0012365174289621 -0.001291201667503645
930000000.0 -1.001310327684275 -0.001388219822063026
935000000.0 -1.0014099508997611 -0.001428662059002866
940000000.0 -1.0013871420771123 -0.001434816567392783
945000000.0 -1.0013703927593798 -0.0014273297844077718
950000000.0 -1.001430583739838 -0.001362046756567013
955000000.0 -1.0014156770549687 -0.001359597035379229
960000000.0 -1.001456208841436 -0.001423117376227616
965000000.0 -1.0015182304604895 -0.0013197424370172191
970000000.0 -1.0014197758832843 -0.0015785334057029092
975000000.0 -1.001405129016573 -0.0015248707698212018
980000000.0 -1.0015909751146044 -0.0016043256787128574
985000000.0 -1.001518210930842 -0.0016316175094146109
990000000.0 -1.0016296281207488 -0.0016272887245344014
995000000.0 -1.0016543360133772 -0.0016408600985912017
1000000000.0 -1.0016048463494562 -0.0015720248879834797
1005000000.0 -1.0016361796344453 -0.0015763221656234295
1010000000.0 -1.0016678411475284 -0.0017840984767400411
1015000000.0 -1.001576508226064 -0.0016576715536625658
1020000000.0 -1.0016537274573254 -0.0018029016803006194
1025000000.0 -1.0016186828588223 -0.0017998667305793132
1030000000.0 -1.0018454996934398 -0.0018939969233273417
1035000000.0 -1.0017529977102917 -0.0018413352330694402
1040000000.0 -1.001746839105436 -0.001956647344336425
1045000000.0 -1.0017872216138237 -0.0020009796261605687
1050000000.0 -1.001819623550929 -0.001984958035577562
1055000000.0 -1.0018691304892868 -0.0020363600075538318
1060000000.0 -1.0018977282652561 -0.0020716184338619046
1065000000.0 -1.0018335083634267 -0.0021844936071617185
1070000000.0 -1.0020065024526927 -0.002250609709119622
1075000000.0 -1.0020242362346174 -0.002213013839530977
1080000000.0 -1.002005699024427 -0.002300554742870684
1085000000.0 -1.0020161575383018 -0.002344352658470695
1090000000.0 -1.0020494997798086 -0.0023689504691728975
1095000000.0 -1.002090353578633 -0.0023968384631864923
1100000000.0 -1.0021286729908998 -0.0023803490810960803
1105000000.0 -1.0021706611897185 -0.002459824242722437
1110000000.0 -1.0020976446420207 -0.002612472778235547
1115000000.0 -1.0021436838828301 -0.0026051417111099904
1120000000.0 -1.002178254696947 -0.002768986404383468
1125000000.0 -1.002352492760113 -0.0028272346166934633
1130000000.0 -1.0022333044384917 -0.002769155997460454
1135000000.0 -1.0023181677265545 -0.002778924641459818
1140000000.0 -1.0023482433908955 -0.002809220877485129
1145000000.0 -1.0023763914611499 -0.0028873620532250443
1150000000.0 -1.0023346058459655 -0.0030446544312918524
1155000000.0 -1.002433733339581 -0.0030191840335097005
1160000000.0 -1.0025114373638073 -0.0030771766115589385
1165000000.0 -1.002372838955023 -0.0031441239511974203
1170000000.0 -1.002460355421819 -0.0032457726711026956
1175000000.0 -1.0024662971907397 -0.003266787735964529
1180000000.0 -1.002524138701592 -0.003333256895890599
1185000000.0 -1.002654830195824 -0.003531667040585697
1190000000.0 -1.002519195164095 -0.003420395304067233
1195000000.0 -1.0026847702801018 -0.0034367280333799516
1200000000.0 -1.0027708983844883 -0.0034780301021005585
1205000000.0 -1.0027633118162114 -0.0036788188032784797
1210000000.0 -1.0027347817022867 -0.0037167618778027565
1215000000.0 -1.002635304595989 -0.003723882951523772
1220000000.0 -1.002729671154125 -0.003818039772445015
1225000000.0 -1.0028283655693848 -0.0038223187149701945
1230000000.0 -1.0027562234271026 -0.003817493313003731
1235000000.0 -1.0027509138354453 -0.003969334212720892
1240000000.0 -1.002915063448932 -0.004032422358034974
1245000000.0 -1.0028671804725713 -0.004106987806554485
1250000000.0 -1.0028707465312496 -0.004098180550974712
1255000000.0 -1.003002370582584 -0.00417024790617413
1260000000.0 -1.0029552356947982 -0.0043686307871403825
1265000000.0 -1.0029611949773523 -0.004301716468820729
1270000000.0 -1.002969176501719 -0.004308367756867922
1275000000.0 -1.0031109569997 -0.00445732142490562
1280000000.0 -1.0032455771918039 -0.004500136912706238
1285000000.0 -1.0031833478042964 -0.004513217301885136
1290000000.0 -1.0032461208644197 -0.00461815883839729
1295000000.0 -1.0031950372168985 -0.004607960825557761
1300000000.0 -1.003105814243333 -0.0046796834415104354
1305000000.0 -1.0031324929396093 -0.004634793954947289
1310000000.0 -1.0033059333262806 -0.004857079288742694
1315000000.0 -1.0033898891271573 -0.004810411147436788
1320000000.0 -1.003198711933318 -0.005021622702871955
1325000000.0 -1.0034486973307586 -0.005090635421594968
1330000000.0 -1.0032756717202858 -0.005099178510918295
1335000000.0 -1.0032879383492703 -0.005070277451304105
1340000000.0 -1.0034976488812688 -0.00510226837300606
1345000000.0 -1.0033901631126791 -0.005130583151021457
1350000000.0 -1.00350365052877 -0.00520901720492457
1355000000.0 -1.0035368615752476 -0.005342062229968156
1360000000.0 -1.0035096176350862 -0.005303138906372041
1365000000.0 -1.0036200670399829 -0.005556755470840946
1370000000.0 -1.003575267991659 -0.0054855667289061905
1375000000.0 -1.0038555780673286 -0.005460642040508961
1380000000.0 -1.0035418690807658 -0.0054614403023160295
1385000000.0 -1.003684817599344 -0.005556833685785635
1390000000.0 -1.0037590234130624 -0.005686345344054902
1395000000.0 -1.0038244713127102 -0.005809150178470922
1400000000.0 -1.0037919571255696 -0.005742000369456099
1405000000.0 -1.0037927728469047 -0.005844970501756817
1410000000.0 -1.0039256345076641 -0.005938788144373614
1415000000.0 -1.0039277760737406 -0.005980644453716464
1420000000.0 -1.0039546850130672 -0.006041031111706369
1425000000.0 -1.0040797958217007 -0.0060396108163713064
1430000000.0 -1.0039812348353414 -0.006123673612409225
1435000000.0 -1.0040308293173676 -0.00625129021583758
1440000000.0 -1.0039951545560837 -0.0062711853084540655
1445000000.0 -1.0040431208981302 -0.006327703667720001
1450000000.0 -1.0041559579182509 -0.006364922549159161
1455000000.0 -1.0041984257917704 -0.006418807681610442
1460000000.0 -1.0042525617141544 -0.006555838973007753
1465000000.0 -1.0042504950795477 -0.006619347794125533
1470000000.0 -1.004273874018534 -0.006637766745037272
1475000000.0 -1.0041952941401509 -0.006727653133506902
1480000000.0 -1.0043107819099268 -0.006759646568586425
1485000000.0 -1.0044011824045473 -0.0067435130117483545
1490000000.0 -1.0044630918400694 -0.0068911448382005785
1495000000.0 -1.0042829205021684 -0.006846857879527921
1500000000.0 -1.0045348040323046 -0.007032481675496425
1505000000.0 -1.004493507837677 -0.007056036882194836
1510000000.0 -1.004540268158824 -0.007115698399943002
1515000000.0 -1.0045977999307667 -0.007208231826120572
1520000000.0 -1.0044829075501696 -0.0071169927280831085
1525000000.0 -1.0045997277120766 -0.007266845900508797
1530000000.0 -1.0046475411202762 -0.0074279032022986245
1535000000.0 -1.0045695540106785 -0.007562601583258956
1540000000.0 -1.0046494642934516 -0.007516225750811287
1545000000.0 -1.0046362757944687 -0.007519984824232317
1550000000.0 -1.0046564472573252 -0.007741066515836919
1555000000.0 -1.0045380236889088 -0.007632603413112699
1560000000.0 -1.0047362194292562 -0.007722899055113785
1565000000.0 -1.0046457339877364 -0.00792486061092801
1570000000.0 -1.0047659274878888 -0.007833070147393439
1575000000.0 -1.0047217344906285 -0.007960516178978767
1580000000.0 -1.0047938368970768 -0.007946601016673976
1585000000.0 -1.0049389675667022 -0.00827177698144194
1590000000.0 -1.0048537062204674 -0.00821673878618354
1595000000.0 -1.004888325057506 -0.008242665033641697
1600000000.0 -1.0047954128852319 -0.008253513183652602
1605000000.0 -1.0048568439083716 -0.008185176292500863
1610000000.0 -1.0047884527018704 -0.00836836542408348
1615000000.0 -1.0051359558184594 -0.008348996077933324
1620000000.0 -1.0048901389519227 -0.008471873193578667
1625000000.0 -1.0048843540327554 -0.008583202175868289
1630000000.0 -1.0047705235467095 -0.008747436517705556
1635000000.0 -1.0047969471538813 -0.008602344020851502
1640000000.0 -1.0050246793462982 -0.008605398862372268
1645000000.0 -1.0046828344539274 -0.008763016987590778
1650000000.0 -1.0049896586905316 -0.008917341470251404
1655000000.0 -1.0049196714066495 -0.008845435767189493
1660000000.0 -1.0048811235075887 -0.008929831508277433
1665000000.0 -1.0051452454347714 -0.00899247902382419
1670000000.0 -1.004911690611068 -0.008941539485224283
1675000000.0 -1.0049381497417784 -0.00902120002108867
1680000000.0 -1.0048023349228041 -0.009145030633261893
1685000000.0 -1.0050516558437155 -0.0092780823598372
1690000000.0 -1.004822447695028 -0.009184290397688814
1695000000.0 -1.0049924535184376 -0.009406083193967659
1700000000.0 -1.0049605609014605 -0.009210794769981216
1705000000.0 -1.0049206340477883 -0.009264664535022183
1710000000.0 -1.0048824023169345 -0.009340295386257028
1715000000.0 -1.0048553391430293 -0.009362003356674229
1720000000.0 -1.0047627539911328 -0.009493219154447962
1725000000.0 -1.0048582885677002 -0.009453938460239453
1730000000.0 -1.0048165336064625 -0.009482923300944579
1735000000.0 -1.0046784951540642 -0.009500104051695537
1740000000.0 -1.0047042300744762 -0.00946579958833991
1745000000.0 -1.00483691889061 -0.009465488718252165
1750000000.0 -1.0048520124371507 -0.009560256759542828
1755000000.0 -1.0047370503459212 -0.009516739666085652
1760000000.0 -1.004789023874785 -0.009609080895585596
1765000000.0 -1.004752720473667 -0.00955368244315742
1770000000.0 -1.0047405433667445 -0.009547007589241159
1775000000.0 -1.0046411776878217 -0.009341823423651531
1780000000.0 -1.0046502057704563 -0.009516811422862287
1785000000.0 -1.0045800048344158 -0.009682972796305596
1790000000.0 -1.0045910078988822 -0.009618164139284343
1795000000.0 -1.0046329503287739 -0.009731303227711962
1800000000.0 -1.0046313601991297 -0.009605574040353813
1805000000.0 -1.004602981817823 -0.009442821490881827
1810000000.0 -1.0046363495932369 -0.00952372955283973
1815000000.0 -1.004587794485084 -0.009602825345202329
1820000000.0 -1.0046403346544774 -0.009591543462542186
1825000000.0 -1.0043049599620355 -0.009526337894154892
1830000000.0 -1.004624812632983 -0.009491652820564448
1835000000.0 -1.0045286180152706 -0.009454571561028689
1840000000.0 -1.004568694445366 -0.009568152156002105
1845000000.0 -1.0041557649653308 -0.009512443196366191
1850000000.0 -1.0042770071991651 -0.009272193350224786
1855000000.0 -1.0043504274878732 -0.009200732369281232
1860000000.0 -1.0043697275339782 -0.009211725821092915
1865000000.0 -1.0044727936976154 -0.009155742031001418
1870000000.0 -1.0040731353219297 -0.009248684134673425
1875000000.0 -1.0042877522588116 -0.009117681508127763
1880000000.0 -1.0042535563682866 -0.009079543535255667
1885000000.0 -1.0039281062264998 -0.009123318204891567
1890000000.0 -1.004144277312389 -0.00907673271999766
1895000000.0 -1.0043360673756847 -0.009096382437649
1900000000.0 -1.004161548138663 -0.00881858876669831
1905000000.0 -1.0039778824106593 -0.008880833557395716
1910000000.0 -1.0038845699923742 -0.00880348760859774
1915000000.0 -1.0039585486615323 -0.008754789557039644
1920000000.0 -1.0040005692601033 -0.008626666876938027
1925000000.0 -1.0040036571002184 -0.008617615737326728
1930000000.0 -1.0039252414038733 -0.008567702808493081
1935000000.0 -1.0039005086606365 -0.008449932423395718
1940000000.0 -1.0037640327097366 -0.008444123310883489
1945000000.0 -1.0038495337486497 -0.00834029057595189
1950000000.0 -1.003718469237712 -0.008223941620018327
1955000000.0 -1.0037124247274256 -0.00814968054293698
1960000000.0 -1.0037938713230268 -0.007921837782200502
1965000000.0 -1.0036837287370322 -0.008084768388244576
1970000000.0 -1.0038867289904576 -0.007983092382052524
1975000000.0 -1.0037331856698926 -0.007874021077820353
1980000000.0 -1.0036152527797344 -0.007802220286951706
1985000000.0 -1.0038485565286008 -0.0077380480011899925
1990000000.0 -1.0035856242097905 -0.007606518799537933
1995000000.0 -1.0036423995888888 -0.007519762734434547
2000000000.0 -1.003538844100845 -0.007307586088604602
2005000000.0 -1.0034691848091701 -0.007400029789144122
2010000000.0 -1.003444189124664 -0.007351733537050856
2015000000.0 -1.0035067551806371 -0.00725633000689855
2020000000.0 -1.003428014987929 -0.007119256357032576
2025000000.0 -1.0033146518026537 -0.006987006910003129
2030000000.0 -1.0033625063702443 -0.006924486651089407
2035000000.0 -1.003337857522571 -0.006826457410932063
2040000000.0 -1.0033516548781503 -0.006775256895379184
2045000000.0 -1.0033241526659071 -0.006705530633213962
2050000000.0 -1.003370124821302 -0.006724786833820967
2055000000.0 -1.0032619600911064 -0.0065221602048069535
2060000000.0 -1.0032679313140729 -0.0065434924859478875
2065000000.0 -1.0031909607192373 -0.006431996370513534
2070000000.0 -1.0031300965854337 -0.0063949080312857755
2075000000.0 -1.00304724556742 -0.006182665711642146
2080000000.0 -1.0030549308199546 -0.0062464045786772195
2085000000.0 -1.0031875894116276 -0.006201915847993704
2090000000.0 -1.0030777843931304 -0.006071627764765295
2095000000.0 -1.0031532877653118 -0.005912245558971015
2100000000.0 -1.003096602828611 -0.005966956478992474
2105000000.0 -1.003066217626 -0.00584889830338781
2110000000.0 -1.0029600022853715 -0.005627534260386671
2115000000.0 -1.003006802947964 -0.005756188315779281
2120000000.0 -1.002965597534016 -0.005612335781542581
2125000000.0 -1.0028185028240602 -0.005660801231361164
2130000000.0 -1.002924149429707 -0.005510890708666893
2135000000.0 -1.00282269911101 -0.005385501329870603
2140000000.0 -1.0027655304005128 -0.005368322325289937
2145000000.0 -1.002782329232326 -0.005418784049202378
2150000000.0 -1.0028231573422246 -0.0050455072484875945
2155000000.0 -1.0027825958724785 -0.005083318176527725
2160000000.0 -1.00266202851655 -0.0051335275986609625
2165000000.0 -1.0027925704690177 -0.004966679761904071
2170000000.0 -1.0028458234026294 -0.004880669338577879
2175000000.0 -1.0026992725093473 -0.004644692866784885
2180000000.0 -1.0026977987061463 -0.004815091012450212
2185000000.0 -1.0025198593314553 -0.004696477230763787
2190000000.0 -1.00232776328013 -0.004806998601639445
2195000000.0 -1.00245071407855 -0.004669611197261046
2200000000.0 -1.0024270694033195 -0.004550982996265742
2205000000.0 -1.0023447096815774 -0.004533079522314631
2210000000.0 -1.0025092977552905 -0.004318710473514807
2215000000.0 -1.0024409168936432 -0.004511749281238804
2220000000.0 -1.0024080542455092 -0.004445117827483996
2225000000.0 -1.0022688790845793 -0.004292274626079649
2230000000.0 -1.0022778098903147 -0.004171311303930372
2235000000.0 -1.0021018043553578 -0.004208147923446978
2240000000.0 -1.0023828185710177 -0.004101575171368681
2245000000.0 -1.002174319470973 -0.004161575092925676
2250000000.0 -1.0020173728846231 -0.004028270859670153
2255000000.0 -1.0022666764177095 -0.004065046568614219
2260000000.0 -1.0019690047620202 -0.003980159463520648
2265000000.0 -1.0021773392937876 -0.0038227234089046906
2270000000.0 -1.0017767835366742 -0.003604999141214125
2275000000.0 -1.002030729968165 -0.0036478865091278258
2280000000.0 -1.001948803766614 -0.0036849591296665455
2285000000.0 -1.0020164064309778 -0.0036101811613198894
2290000000.0 -1.0018546393789176 -0.003524809277759775
2295000000.0 -1.0018265650640639 -0.003632350597246229
2300000000.0 -1.0018511470995772 -0.003581835739342555
2305000000.0 -1.0018742386108288 -0.0034850446284453913
2310000000.0 -1.0018068021137985 -0.0034171429647950036
2315000000.0 -1.0017235658572228 -0.0034188346918974594
2320000000.0 -1.0017955131721819 -0.0033962275686437366
2325000000.0 -1.0018386724331103 -0.003315922732654082
2330000000.0 -1.0017500253816496 -0.0032753636147624795
2335000000.0 -1.0017612373879297 -0.0032440335886341964
2340000000.0 -1.0016913799269465 -0.0031395562966833965
2345000000.0 -1.0016255575775876 -0.0030265047833248544
2350000000.0 -1.001642050084153 -0.0030124290716292555
2355000000.0 -1.001645494720567 -0.003024169967788173
2360000000.0 -1.00163530299855 -0.003054383048094612
2365000000.0 -1.0014390529945376 -0.0029810737635697533
2370000000.0 -1.0017020040825326 -0.0029642509795719087
2375000000.0 -1.001587996144296 -0.0029156830882803276
2380000000.0 -1.0014844426615743 -0.0028647614503841882
2385000000.0 -1.0014996878006996 -0.0026749066766247427
2390000000.0 -1.0015251987163385 -0.0027154760637820305
2395000000.0 -1.001471573181425 -0.0026351190719520416
2400000000.0 -1.001441243971984 -0.0024941970186865307
2405000000.0 -1.0014651679611923 -0.002431611974583
2410000000.0 -1.0014136600842665 -0.002384925341169234
2415000000.0 -1.0012392353264246 -0.0023909057959361152
2420000000.0 -1.0012390344111894 -0.0024204206226307824
2425000000.0 -1.0012672880079927 -0.0023261211746474562
2430000000.0 -1.0010995558312599 -0.0024566186230911983
2435000000.0 -1.0013100927090914 -0.0022630264985097413
2440000000.0 -1.0012680326980221 -0.0022629838666646126
2445000000.0 -1.001160095608073 -0.002248254277920711
2450000000.0 -1.0009814470663057 -0.002451891279721411
2455000000.0 -1.0011457315892955 -0.0022411103568762995
2460000000.0 -1.0010304921679836 -0.0020639898228123656
2465000000.0 -1.0009705748105466 -0.0020382373429919283
2470000000.0 -1.0009438830374473 -0.00213500085770158
2475000000.0 -1.0011322660620898 -0.001916254731219186
2480000000.0 -1.0011625982372965 -0.0019255738231041869
2485000000.0 -1.0010558391878872 -0.0018882234770707601
2490000000.0 -1.0011711199044304 -0.0018177070120564017
2495000000.0 -1.001239912455058 -0.0018163640112743979
2500000000.0 -1.0011870615841223 -0.0017946177641290236
2505000000.0 -1.0009374674542262 -0.0017742723695523144
2510000000.0 -1.0009607829557585 -0.0017655262305255961
2515000000.0 -1.0011155411297765 -0.001612649999236839
2520000000.0 -1.00102825129631 -0.0016493039149192373
2525000000.0 -1.000948699690788 -0.0016071926831954916
2530000000.0 -1.0010942891640906 -0.0015245372237554762
2535000000.0 -1.0010417311736228 -0.001542767332622528
2540000000.0 -1.0010074109616658 -0.001555800156459824
2545000000.0 -1.0008434084986535 -0.0015890664574373574
2550000000.0 -1.000922947263767 -0.0012597366398285435
2555000000.0 -1.0009988649327008 -0.0013971698071321148
2560000000.0 -1.0010427521409768 -0.0013481884936154401
2565000000.0 -1.0008874033379886 -0.0013910573660056273
2570000000.0 -1.000966515511088 -0.0013002349635142343
2575000000.0 -1.0009420098202193 -0.0012416968986423361
2580000000.0 -1.0008669494715208 -0.001225707494489273
2585000000.0 -1.000870390643103 -0.0013639400518097686
2590000000.0 -1.0009122405799815 -0.0013039902258595146
2595000000.0 -1.000936609586211 -0.0014292445829588744
2600000000.0 -1.0008807612440782 -0.0013561456768459532
2605000000.0 -1.001010731270662 -0.0011219313812125124
2610000000.0 -1.0009173413697248 -0.0011994079895750434
2615000000.0 -1.0010218759306717 -0.0011787949965005712
2620000000.0 -1.0010024888061813 -0.0011241234652867346
2625000000.0 -1.001026573948515 -0.0011547601117539502
2630000000.0 -1.0009884990411753 -0.0012820067696824615
2635000000.0 -1.0010250167694383 -0.001169556426900335
2640000000.0 -1.0010626764901738 -0.0010808608408351252
2645000000.0 -1.0010422021464758 -0.0011904549560427117
2650000000.0 -1.0011647593995798 -0.001217754749984258
2655000000.0 -1.0011695759339527 -0.0012449672090932102
2660000000.0 -1.0011098600585147 -0.001200617156947822
2665000000.0 -1.000991331135417 -0.0011040546679029625
2670000000.0 -1.0011951704303765 -0.0012086702192446875
2675000000.0 -1.001100618044823 -0.0011337212448061366
2680000000.0 -1.0011580292087081 -0.0012741511218979883
2685000000.0 -1.001265146090458 -0.0012123022017806444
2690000000.0 -1.001157794878036 -0.001213238109164904
2695000000.0 -1.001322445207513 -0.0011880444309312307
2700000000.0 -1.0012343614822383 -0.0012880534114461174
2705000000.0 -1.001168139625194 -0.001289453484610812
2710000000.0 -1.0011961923783241 -0.0013481155572647651
2715000000.0 -1.001325333827632 -0.0014053326025185067
2720000000.0 -1.0014704177687428 -0.0014308982400839051
2725000000.0 -1.0013623152696935 -0.0014739122357714845
2730000000.0 -1.00144588623908 -0.0014665019826651427
2735000000.0 -1.0015572074204615 -0.001596597644059852
2740000000.0 -1.001555399679458 -0.0015762299993578443
2745000000.0 -1.0015602473918794 -0.0015713255892358692
2750000000.0 -1.0016883202440725 -0.0015438687278397701
2755000000.0 -1.0017249609525534 -0.001727204159331221
2760000000.0 -1.0016157617816737 -0.0017893026259291744
2765000000.0 -1.0017278166250476 -0.001735496262563535
2770000000.0 -1.0016952206794651 -0.0019913201041672135
2775000000.0 -1.0017214817536386 -0.002035587850431861
2780000000.0 -1.0020252705535575 -0.0020216720569486866
2785000000.0 -1.0018430882436002 -0.0021937118921739277
2790000000.0 -1.0019953518226985 -0.002214978678647823
2795000000.0 -1.0019192097682734 -0.0021747479355121633
2800000000.0 -1.002270587355205 -0.0022972269850649284
2805000000.0 -1.0022585393102088 -0.0023778412092193627
2810000000.0 -1.0022574360189556 -0.0022626311032264124
2815000000.0 -1.0021214100277822 -0.0024764766727336024
2820000000.0 -1.0022203813691697 -0.0028906385001741543
2825000000.0 -1.0023012917258882 -0.002629150258858232
2830000000.0 -1.002329473149487 -0.0027479564715741623
2835000000.0 -1.002249971360106 -0.0029962398883844627
2840000000.0 -1.0023572011374267 -0.002956060482760217
2845000000.0 -1.00272947896955 -0.0030834987372961517
2850000000.0 -1.0027771844110194 -0.003277339402621546
2855000000.0 -1.0027754960848476 -0.0030974842479172438
2860000000.0 -1.0029251980560838 -0.0033341177413022836
2865000000.0 -1.0027394651247046 -0.003452876697706483
2870000000.0 -1.00275469714641 -0.0034783589442068607
2875000000.0 -1.002851071982029 -0.0037384244190611154
2880000000.0 -1.0028783873515725 -0.003881829712817143
2885000000.0 -1.0029497509177292 -0.0039830750357705376
2890000000.0 -1.0030639509911496 -0.004045748617577112
2895000000.0 -1.0031146243398337 -0.003954736680307019
2900000000.0 -1.0032215608508428 -0.0041874433833534695
2905000000.0 -1.003322045449742 -0.003906364507839728
2910000000.0 -1.0033270969028025 -0.004108801230855074
2915000000.0 -1.0032994487383284 -0.004517714677888538
2920000000.0 -1.0034603561422468 -0.004520873672932064
2925000000.0 -1.0035200686699455 -0.0045226665072045005
2930000000.0 -1.0035863915481489 -0.004899267505251898
2935000000.0 -1.0037227276317506 -0.004807346862454288
2940000000.0 -1.0038362475633502 -0.0049313236176498085
2945000000.0 -1.0039859426821276 -0.0050948854704115035
2950000000.0 -1.003854366891169 -0.005307974386734899
2955000000.0 -1.0041219175593534 -0.005213120335188657
2960000000.0 -1.0040522282285038 -0.005235873332192197
2965000000.0 -1.0042108750723426 -0.005256033207331772
2970000000.0 -1.004304604079349 -0.0055174769124434085
2975000000.0 -1.0042689139093246 -0.005691232132606558
2980000000.0 -1.0044046252586023 -0.005752815340064426
2985000000.0 -1.004510196137735 -0.005752964159287694
2990000000.0 -1.004537902382276 -0.005748459040443836
2995000000.0 -1.0048686858790055 -0.00601196170060962
3000000000.0 -1.004711278158874 -0.006079253134259489
3005000000.0 -1.0049594772085801 -0.006359684333136462
3010000000.0 -1.0048198595174531 -0.006377812111996505
3015000000.0 -1.0050135357550427 -0.006422982892040847
3020000000.0 -1.0052354381489186 -0.0068811965072527485
3025000000.0 -1.0050387795158728 -0.006681713030722738
3030000000.0 -1.005292018621385 -0.00670671582914495
3035000000.0 -1.0052789440610408 -0.006639567024693526
3040000000.0 -1.0053708076618346 -0.0067979461570899435
3045000000.0 -1.00566902816182 -0.00690019053003286
3050000000.0 -1.0053632453095214 -0.00729065368877963
3055000000.0 -1.0057549960621555 -0.0071498976063940345
3060000000.0 -1.0056725685610814 -0.007038673994218728
3065000000.0 -1.006149544152008 -0.00727709072677606
3070000000.0 -1.0060482408735427 -0.007314410077304946
3075000000.0 -1.0057206855021184 -0.007162503240160185
3080000000.0 -1.0054566871450856 -0.007512173972409024
3085000000.0 -1.005821230319296 -0.007184619798557412
3090000000.0 -1.0062459151980652 -0.007644157554027131
3095000000.0 -1.0060930981468683 -0.007682578365436866
3100000000.0 -1.0060951397670281 -0.007756665015675685
3105000000.0 -1.006071706701187 -0.007930138468048737
3110000000.0 -1.0063780243822225 -0.008146960263485586
3115000000.0 -1.0063244318669824 -0.008354406477255891
3120000000.0 -1.00652623921263 -0.008429921924409927
3125000000.0 -1.0061992392209795 -0.008153047312199034
3130000000.0 -1.0069610516849317 -0.008126142228758284
3135000000.0 -1.0071202580251961 -0.0089426451603614
3140000000.0 -1.006703124288885 -0.008612003704086223
3145000000.0 -1.007017944320379 -0.008360603374202176
3150000000.0 -1.006939988380717 -0.008938425675518058
3155000000.0 -1.0070276575398571 -0.008804965963067374
3160000000.0 -1.0070786892501706 -0.009047569718278586
3165000000.0 -1.0071363753111944 -0.008843360225008135
3170000000.0 -1.0071958529682883 -0.00920768911974217
3175000000.0 -1.0069205160010557 -0.009301855184758736
3180000000.0 -1.0071062542073799 -0.009474542894120664
3185000000.0 -1.0073368411454833 -0.009668541975765643
3190000000.0 -1.0072731677765185 -0.009552242366551082
3195000000.0 -1.0077412916967552 -0.009582486226322613
3200000000.0 -1.007329852539989 -0.009784363539894874
3205000000.0 -1.007572120577892 -0.009803231028897482
3210000000.0 -1.007812948946069 -0.010098276979743892
3215000000.0 -1.007860902118636 -0.01006520904674804
3220000000.0 -1.0079789697804948 -0.010240765627246927
3225000000.0 -1.007934139888323 -0.010337514822670675
3230000000.0 -1.0078475467258994 -0.010397653772775217
3235000000.0 -1.0080572625826996 -0.01038846806309976
3240000000.0 -1.0081693143908521 -0.010591662909184504
3245000000.0 -1.0081262273988834 -0.010403872264836276
3250000000.0 -1.0081678949118915 -0.01075877451270823
3255000000.0 -1.0082595199984927 -0.010809277184923458
3260000000.0 -1.0081299244331776 -0.010913066460712472
3265000000.0 -1.0082321985276452 -0.010868803297487862
3270000000.0 -1.0084134740181996 -0.0110842547975941
3275000000.0 -1.0083184272670929 -0.011254077035859048
3280000000.0 -1.008512104769918 -0.01120238796025976
3285000000.0 -1.0082031085590875 -0.011046234982891203
3290000000.0 -1.0085062049124027 -0.011432265487775907
3295000000.0 -1.008846672383372 -0.011267316227280692
3300000000.0 -1.0085055058011274 -0.011333833688050004
3305000000.0 -1.008394102873353 -0.011336137322658696
3310000000.0 -1.008520053388443 -0.012034192943202243
3315000000.0 -1.0088025896962252 -0.011670197890268803
3320000000.0 -1.0087690791836985 -0.011883351435438507
3325000000.0 -1.0086650009586702 -0.012240534350210686
3330000000.0 -1.0083544768344535 -0.012187798128154554
3335000000.0 -1.0086279062515413 -0.012161330524281188
3340000000.0 -1.0090472268481878 -0.0121380634878324
3345000000.0 -1.0094176279525624 -0.012549882773621618
3350000000.0 -1.0092738863309112 -0.012415697546304897
3355000000.0 -1.009077060646389 -0.012720877393527669
3360000000.0 -1.0090468291888592 -0.013119913094368059
3365000000.0 -1.0085347550846129 -0.012884933428751995
3370000000.0 -1.009071136984344 -0.01299659253235338
3375000000.0 -1.00931674662481 -0.013219198979708904
3380000000.0 -1.0089797600085195 -0.013248760975196196
3385000000.0 -1.0087360437570614 -0.013427653816666447
3390000000.0 -1.0089500987740514 -0.01359077837684761
3395000000.0 -1.0088775648372126 -0.013349388462036236
3400000000.0 -1.0092570827189284 -0.01326103522798304
3405000000.0 -1.0091746273252045 -0.013752581722128844
3410000000.0 -1.008986458056105 -0.013651083064578896
3415000000.0 -1.0086761410935219 -0.013854887835913272
3420000000.0 -1.0090483103309158 -0.014013193804278047
3425000000.0 -1.0089491400571566 -0.014075751386931882
3430000000.0 -1.0088334309605624 -0.014156362488394839
3435000000.0 -1.0089717163685359 -0.01408978711474204
3440000000.0 -1.0088900610593063 -0.014171000117321208
3445000000.0 -1.0086792388807513 -0.014073236204088884
3450000000.0 -1.0088654674962878 -0.014233598222292412
3455000000.0 -1.0088783632666496 -0.01416150159653741
3460000000.0 -1.0087824442008082 -0.014131521271959536
3465000000.0 -1.0087670808018803 -0.014487694194902551
3470000000.0 -1.0088053287476892 -0.014621203832267036
3475000000.0 -1.0087725117455983 -0.014625588584316312
3480000000.0 -1.0087711558755454 -0.01460043935271403
3485000000.0 -1.0088556054851519 -0.014399288005919674
3490000000.0 -1.0087899176967243 -0.014623234602712174
3495000000.0 -1.0088225578077001 -0.01460275069386632
3500000000.0 -1.0085430482148514 -0.014707387312984007
3505000000.0 -1.0084125863751057 -0.01477088322503744
3510000000.0 -1.008628678367116 -0.014889995158541166
3515000000.0 -1.008571141557105 -0.014881222740233744
3520000000.0 -1.0085856812926486 -0.014764984947713637
3525000000.0 -1.0084536541913032 -0.01487339802791303
3530000000.0 -1.0086370118739427 -0.015220813264283562
3535000000.0 -1.008535570152569 -0.014698281592124265
3540000000.0 -1.008167037216567 -0.014954916454857374
3545000000.0 -1.0080055085737631 -0.015018878299035508
3550000000.0 -1.0081450353469785 -0.014568287144474707
3555000000.0 -1.0080317310680509 -0.014569148626076644
3560000000.0 -1.0079522239623264 -0.014599478333241704
3565000000.0 -1.0081957019749326 -0.01474841666139176
3570000000.0 -1.0078937788991889 -0.01473889747181383
3575000000.0 -1.0062594271472076 -0.016068859454609206
3580000000.0 -1.0073043993400528 -0.01456470308903434
3585000000.0 -1.0079335946625099 -0.014866818743236254
3590000000.0 -1.0075825207309346 -0.014636320250944516
3595000000.0 -1.0076889308230745 -0.014694808746405632
3600000000.0 -1.0073347470799625 -0.014187365716383297
3605000000.0 -1.006652969425854 -0.014351753164106586
3610000000.0 -1.007096279738395 -0.014176974875055382
3615000000.0 -1.0074025976842558 -0.014040036652306392
3620000000.0 -1.007350180041082 -0.013876381526255185
3625000000.0 -1.0070366890343274 -0.01253096897298073
3630000000.0 -1.0067162460802634 -0.013760079641512464
3635000000.0 -1.0067643445620924 -0.01348483389156706
3640000000.0 -1.0065477184770246 -0.013453942199715109
3645000000.0 -1.0072988250180048 -0.013715747817264602
3650000000.0 -1.006620209924191 -0.013352923540939497
3655000000.0 -1.0064011099009376 -0.013268290425127621
3660000000.0 -1.0062906337652964 -0.013080106331662641
3665000000.0 -1.0063289369020427 -0.013001395945472977
3670000000.0 -1.0062600182767607 -0.013012450071989843
3675000000.0 -1.0069238801110154 -0.012590310912982662
3680000000.0 -1.0063247441826375 -0.012411512050812298
3685000000.0 -1.005998818483568 -0.012378306433686592
3690000000.0 -1.0059638857599538 -0.012322105954630859
3695000000.0 -1.0056273070426527 -0.012101681625152263
3700000000.0 -1.0056105041242787 -0.012093510014997368
3705000000.0 -1.005336523212211 -0.011883945021801364
3710000000.0 -1.0054305687602074 -0.011498736281354229
3715000000.0 -1.005526195969913 -0.011383512729930727
3720000000.0 -1.0054952557900152 -0.011774157894643696
3725000000.0 -1.0057678805729053 -0.010587957372323351
3730000000.0 -1.005265391630416 -0.011230371894128899
3735000000.0 -1.0054730889557675 -0.010794428127903677
3740000000.0 -1.0053142701037268 -0.01076548851000935
3745000000.0 -1.0051110271220227 -0.010443336401300414
3750000000.0 -1.0051061320948382 -0.010333493403293316
3755000000.0 -1.0050319501079354 -0.010308960018973724
3760000000.0 -1.004983929649219 -0.010289241292433388
3765000000.0 -1.0049509564041221 -0.010164586957171417
3770000000.0 -1.0049071997915788 -0.009962303566157866
3775000000.0 -1.0047787483544781 -0.009750779985829482
3780000000.0 -1.0044544542079887 -0.009687618546377553
3785000000.0 -1.0044679474233715 -0.009639533221021996
3790000000.0 -1.0042948734347488 -0.009560653284485604
3795000000.0 -1.0043755023654526 -0.009319630428945945
3800000000.0 -1.0041484479675042 -0.009193203257471807
3805000000.0 -1.0039422756446987 -0.009041647122257144
3810000000.0 -1.0039504296504176 -0.008692492583005881
3815000000.0 -1.0040230489862123 -0.00854140915857674
3820000000.0 -1.0037956894883329 -0.008231547567508763
3825000000.0 -1.0036136887167986 -0.007880808847916816
3830000000.0 -1.0036226066783192 -0.008095942803864905
3835000000.0 -1.0037662809998171 -0.007853046338614802
3840000000.0 -1.003607530795254 -0.00762418458415295
3845000000.0 -1.0033108156304387 -0.0075589745791423005
3850000000.0 -1.0035578926642041 -0.0075788604263529406
3855000000.0 -1.0033073277585467 -0.007382742685773433
3860000000.0 -1.0033807486022455 -0.00732011269723519
3865000000.0 -1.0029187494981644 -0.007340199132883713
3870000000.0 -1.003242102160703 -0.006763432869757251
3875000000.0 -1.0031703707359145 -0.006845961501562356
3880000000.0 -1.0032037914989775 -0.006962211091212116
3885000000.0 -1.0029780664125456 -0.00654942712409464
3890000000.0 -1.0030033069310071 -0.006464650663680319
3895000000.0 -1.0033795172900333 -0.006209319482252091
3900000000.0 -1.002898857237378 -0.006054072959429429
3905000000.0 -1.0032959236083263 -0.006100441155890207
3910000000.0 -1.0027505324969057 -0.0058745180125377465
3915000000.0 -1.0025594025036575 -0.005911387684635812
3920000000.0 -1.0026940206289985 -0.005671456608085415
3925000000.0 -1.0025548909105433 -0.005846844166905702
3930000000.0 -1.0026559014753746 -0.005649943248932019
3935000000.0 -1.002549623618126 -0.005421043725390335
3940000000.0 -1.0022939344559245 -0.005486365187029221
3945000000.0 -1.0023359532341884 -0.005162928400926516
3950000000.0 -1.002318656534181 -0.00500049303483039
3955000000.0 -1.0023345456069108 -0.004974593014520003
3960000000.0 -1.0022705668289393 -0.004974188020658348
3965000000.0 -1.002025021504415 -0.004656277867788357
3970000000.0 -1.0019494088698728 -0.00460038560481886
3975000000.0 -1.0022961232154395 -0.0048235884001293595
3980000000.0 -1.002023849967302 -0.004654453568552629
3985000000.0 -1.001952001421384 -0.004553862668636578
3990000000.0 -1.001994194664195 -0.004437336522214677
3995000000.0 -1.0019526327657862 -0.004288402055089769
4000000000.0 -1.0018946972795937 -0.00412767892063035
4005000000.0 -1.0018171253925607 -0.00421919218648314
4010000000.0 -1.00176745428468 -0.0042571690407755495
4015000000.0 -1.001914622966894 -0.003924737041271661
4020000000.0 -1.0018758503011327 -0.0039986746368013415
4025000000.0 -1.0015582154608542 -0.003946310625027641
4030000000.0 -1.001709477253192 -0.003780202511590509
4035000000.0 -1.001637325933818 -0.0038330409162528993
4040000000.0 -1.00169100191069 -0.003668643394573836
4045000000.0 -1.0016232944474586 -0.003629393397824903
4050000000.0 -1.0014988531974156 -0.00360459328873058
4055000000.0 -1.001300058881542 -0.0034084239994681474
4060000000.0 -1.0014367207588397 -0.0034951459674907323
4065000000.0 -1.001563324143488 -0.0033837282940232436
4070000000.0 -1.0014325115612652 -0.003339590121955111
4075000000.0 -1.0012602945436127 -0.003287026256991989
4080000000.0 -1.0014227228573054 -0.0034715188388046514
4085000000.0 -1.0013650558596257 -0.0031498937520237536
4090000000.0 -1.0013006685434187 -0.003158464251062439
4095000000.0 -1.0011697072316859 -0.002880146774560424
4100000000.0 -1.0011849115506148 -0.0029912385681957463
4105000000.0 -1.0010001084668123 -0.003405096803275985
4110000000.0 -1.0012207743063246 -0.0026152893912484874
4115000000.0 -1.0011874164420647 -0.0031142642745267627
4120000000.0 -1.0012449206464809 -0.0030643767350603634
4125000000.0 -1.0011629314714152 -0.0030145702451815056
4130000000.0 -1.0012751673185878 -0.0027991707308136268
4135000000.0 -1.0012354497249585 -0.002471456313549178
4140000000.0 -1.001303106968152 -0.0027121301395730195
4145000000.0 -1.0012774831458422 -0.0023109584916555913
4150000000.0 -1.001200654926067 -0.0024611828774905816
4155000000.0 -1.001098643368032 -0.0022313076799197907
4160000000.0 -1.000971283223105 -0.002374664923811719
4165000000.0 -1.001028624394055 -0.0027237564088333148
4170000000.0 -1.0010379293489458 -0.0023552200034855295
4175000000.0 -1.001105896583896 -0.0024563196742068893
4180000000.0 -1.001265459291627 -0.002070468373858523
4185000000.0 -1.0006380983184955 -0.0023551874451987016
4190000000.0 -1.000834875965012 -0.0022027535923541414
4195000000.0 -1.001222101889129 -0.0018602280998682352
4200000000.0 -1.0011460183056609 -0.001956469781484901
4205000000.0 -1.0009158592945935 -0.0021876461387165605
4210000000.0 -1.0010489569395036 -0.0019209349213224656
4215000000.0 -1.0008594064555603 -0.0022960013904840706
4220000000.0 -1.0010955300123878 -0.0016561940787602062
4225000000.0 -1.0013694518276892 -0.002191556236047739
4230000000.0 -1.00104486231813 -0.0015741511000181715
4235000000.0 -1.001039925571669 -0.001932029469507623
4240000000.0 -1.0009692944164192 -0.0018095139018627865
4245000000.0 -1.0010168685218745 -0.0017793749077842796
4250000000.0 -1.001179841227747 -0.0017666989396776193
4255000000.0 -1.001037631955003 -0.001788689160440062
4260000000.0 -1.0013758433763016 -0.0014752079939552769
4265000000.0 -1.0012105752402976 -0.0017242727267573128
4270000000.0 -1.0012389462383375 -0.0017352958670833454
4275000000.0 -1.0010384105078391 -0.0016738855321981232
4280000000.0 -1.0010715250553068 -0.001724260392810644
4285000000.0 -1.0011035066874923 -0.0015966956048394565
4290000000.0 -1.0013298722731943 -0.0015807510248525966
4295000000.0 -1.0011820733986958 -0.0014476456828437817
4300000000.0 -1.0011054227553655 -0.0016240083830945903
4305000000.0 -1.0011050036103348 -0.0016540256734278802
4310000000.0 -1.0012086679705865 -0.0016815094915388256
4315000000.0 -1.0011729734924402 -0.0015478447902646567
4320000000.0 -1.0012611103171283 -0.0016379091897140517
4325000000.0 -1.0013224062591477 -0.0016586491127307287
4330000000.0 -1.001259582374739 -0.0016057695726516376
4335000000.0 -1.0012943097503069 -0.001607433051991299
4340000000.0 -1.0013516856931293 -0.0017241312528843609
4345000000.0 -1.0013266035255717 -0.0017598449832892812
4350000000.0 -1.0013268662942485 -0.0018253299157932308
4355000000.0 -1.0013722854918607 -0.0017473416161053789
4360000000.0 -1.0013604631008381 -0.0018434799538719474
4365000000.0 -1.0015273136134235 -0.0018379138387930047
4370000000.0 -1.0014464980927464 -0.0018462776104703198
4375000000.0 -1.0014734988050902 -0.0019255775013686514
4380000000.0 -1.001675992690321 -0.0020449010603278226
4385000000.0 -1.0014445383247328 -0.0017854835589832811
4390000000.0 -1.0017131694211254 -0.002080520437887337
4395000000.0 -1.0015679228472114 -0.0021404399001979293
4400000000.0 -1.0016961744900261 -0.0019435585432009857
4405000000.0 -1.001679460495837 -0.002150993050163055
4410000000.0 -1.0017410020979904 -0.0021872641371889767
4415000000.0 -1.0018348728174844 -0.0023546820474325764
4420000000.0 -1.001843876225082 -0.0024121083455782566
4425000000.0 -1.00189721160851 -0.002876189299763528
4430000000.0 -1.0018829581806765 -0.0024484514573826356
4435000000.0 -1.0018639572008916 -0.002694274823912168
4440000000.0 -1.001897319536987 -0.002629454543006738
4445000000.0 -1.0021275678290873 -0.002735002129468595
4450000000.0 -1.0022267709812198 -0.002670936252782172
4455000000.0 -1.0022303427338144 -0.00297561017580457
4460000000.0 -1.0021566885152264 -0.0032474131240165446
4465000000.0 -1.0021806556204118 -0.002822429534700795
4470000000.0 -1.0020714545625098 -0.0032577356458878192
4475000000.0 -1.0023731313071211 -0.0036426423952034457
4480000000.0 -1.0023528925896061 -0.003484732751909745
4485000000.0 -1.0025954379582394 -0.003712115658529418
4490000000.0 -1.0027375434507078 -0.0035619905975512807
4495000000.0 -1.002396079598721 -0.003738215405375703
4500000000.0 -1.0024723813859988 -0.003956753810970663
4505000000.0 -1.002766224679226 -0.0038459718579455108
4510000000.0 -1.0026774530132654 -0.0037565549897447077
4515000000.0 -1.0029006114988395 -0.004087222428197591
4520000000.0 -1.0029187041599588 -0.004115951072583151
4525000000.0 -1.0029603070347155 -0.004308224625372031
4530000000.0 -1.0027151991683099 -0.004397056956886285
4535000000.0 -1.0029999220147743 -0.004589015900288593
4540000000.0 -1.0030892288835116 -0.004863663528894862
4545000000.0 -1.003300025652253 -0.0050589561686587535
4550000000.0 -1.0033610052841502 -0.005190361548560049
4555000000.0 -1.0033910921227025 -0.005288712330156364
4560000000.0 -1.0034973008602257 -0.0054278144553860505
4565000000.0 -1.0035547164174907 -0.005518629433309819
4570000000.0 -1.0036917557736336 -0.0056414327925459265
4575000000.0 -1.0037582956344602 -0.005714127072238144
4580000000.0 -1.0038444033697327 -0.005925201906907819
4585000000.0 -1.0039472254559987 -0.006054215955215873
4590000000.0 -1.0040525786273666 -0.006416333253650475
4595000000.0 -1.0041010078503414 -0.006389951277139593
4600000000.0 -1.0041843253708844 -0.006625151289885965
4605000000.0 -1.0042263969244323 -0.006673384989444091
4610000000.0 -1.0043702981139078 -0.006708209885651846
4615000000.0 -1.004547682192092 -0.006898668434755306
4620000000.0 -1.0045943428696371 -0.007123691352254262
4625000000.0 -1.0046658446491337 -0.007160269135464518
4630000000.0 -1.0048909128494539 -0.007243642610702176
4635000000.0 -1.0049374182696682 -0.0075100834299098645
4640000000.0 -1.0049909797079166 -0.007503396986844145
4645000000.0 -1.0054952657472862 -0.007908939573083905
4650000000.0 -1.005067417367732 -0.00800558594026476
4655000000.0 -1.0054626668199949 -0.007961893931732095
4660000000.0 -1.0057597503533036 -0.008395484524687122
4665000000.0 -1.0061146579523867 -0.008053527799882736
4670000000.0 -1.0060345252506193 -0.008538625810900582
4675000000.0 -1.0061000508564888 -0.008644811603902501
4680000000.0 -1.0061776105111149 -0.008798622432494917
4685000000.0 -1.0065800173205206 -0.008889514404805987
4690000000.0 -1.0065891260742266 -0.009060178979187703
4695000000.0 -1.0065345735688234 -0.009115591799177675
4700000000.0 -1.0068805123430469 -0.008892537267401114
4705000000.0 -1.0072411885937047 -0.009086143310024991
4710000000.0 -1.0072241595734561 -0.009222399354239236
4715000000.0 -1.007357679081445 -0.009637549166310507
4720000000.0 -1.006804406796115 -0.009216412021552895
4725000000.0 -1.0070904801057199 -0.009464269223402275
4730000000.0 -1.0078663454364458 -0.01005688945415512
4735000000.0 -1.0076041726403375 -0.00958383810605869
4740000000.0 -1.007458885194628 -0.010052876410206902
4745000000.0 -1.0074251426880205 -0.01069112990840809
4750000000.0 -1.0077798063334908 -0.010227290517131215
4755000000.0 -1.0080142181961858 -0.010167999045159564
4760000000.0 -1.0077599305623706 -0.01018035076746538
4765000000.0 -1.0080803611324975 -0.010795144610371735
4770000000.0 -1.0081323625673801 -0.01019094070679452
4775000000.0 -1.0081577294933688 -0.009937934986680634
4780000000.0 -1.0086636163388443 -0.010479192242115824
4785000000.0 -1.0084020153556328 -0.010385120983332198
4790000000.0 -1.0085121755959348 -0.010136001560121372
4795000000.0 -1.0091132598956492 -0.010551238224617404
4800000000.0 -1.0091855219754224 -0.010835499066029321
4805000000.0 -1.009061113228672 -0.011285440191737016
4810000000.0 -1.0090818829867967 -0.010511490644885064
4815000000.0 -1.0091543555361906 -0.010821019515410915
4820000000.0 -1.0095764587507317 -0.010954647982678128
4825000000.0 -1.0094852039356814 -0.011071929532926085
4830000000.0 -1.0100792283445628 -0.011313911735590558
4835000000.0 -1.0099673201434665 -0.01105209548043855
4840000000.0 -1.0101096588054566 -0.011314041004199638
4845000000.0 -1.0100698742967615 -0.011326713042571532
4850000000.0 -1.0105821517747802 -0.011294072548141416
4855000000.0 -1.0106744604677196 -0.01161761508215421
4860000000.0 -1.0104609494122065 -0.011442941734100686
4865000000.0 -1.010544130053389 -0.011914951327475358
4870000000.0 -1.0108298340348394 -0.011533489419783705
4875000000.0 -1.0109967929108858 -0.01172665864359759
4880000000.0 -1.0111320822799617 -0.011909740430299205
4885000000.0 -1.0111495045889225 -0.011806461842635967
4890000000.0 -1.011368527411772 -0.011907299796678763
4895000000.0 -1.0114288355724506 -0.01203119041112321
4900000000.0 -1.0114824186524438 -0.012048053842463848
4905000000.0 -1.0115793280777339 -0.012166492058124511
4910000000.0 -1.0116986366872942 -0.012299653354070681
4915000000.0 -1.011684195505067 -0.012320210432016386
4920000000.0 -1.0118562749124553 -0.012334440376119204
4925000000.0 -1.0119812002494213 -0.012563206756762556
4930000000.0 -1.01203374207841 -0.012752091162500312
4935000000.0 -1.0120843262426211 -0.01274096232040695
4940000000.0 -1.0121112313076033 -0.012943293751103107
4945000000.0 -1.0122763329502493 -0.013283124124484944
4950000000.0 -1.012557819543176 -0.013377899815926917
4955000000.0 -1.0127086385110649 -0.013424317739739618
4960000000.0 -1.0126671665289793 -0.01379918653983211
4965000000.0 -1.0130299064564945 -0.013809735268527319
4970000000.0 -1.0130721684425386 -0.013766524021079515
4975000000.0 -1.013117103539391 -0.013978989780603369
4980000000.0 -1.0134247661357856 -0.014264398520477596
4985000000.0 -1.013694440608659 -0.014548850966428392
4990000000.0 -1.0135817373678149 -0.014569156266436569
4995000000.0 -1.0139178172475372 -0.014771323354993834
5000000000.0 -1.0142311933567252 -0.014870365100862112
5005000000.0 -1.0144395737204985 -0.015119489369379343
5010000000.0 -1.0148205228290144 -0.015068600338382025
5015000000.0 -1.0148852219520401 -0.015416071764497904
5020000000.0 -1.0153374818613534 -0.01530515868767488
5025000000.0 -1.0154835904752126 -0.015268484608087413
5030000000.0 -1.0159228803978 -0.014841945401504058
5035000000.0 -1.0160263298514913 -0.015183188866682905
5040000000.0 -1.0161484152625868 -0.015179052938237299
5045000000.0 -1.0162679946814719 -0.015108845561118167
5050000000.0 -1.0161687679899485 -0.014708413318043652
5055000000.0 -1.0165441751377349 -0.014898793903013442
5060000000.0 -1.0162401139400499 -0.01515100866004885
5065000000.0 -1.0165618493299269 -0.015119460983697696
5070000000.0 -1.0166688987786807 -0.015239522217468021
5075000000.0 -1.016371054234255 -0.015371093537790911
5080000000.0 -1.0165126696694642 -0.015491704766193149
5085000000.0 -1.0165671417115634 -0.015518214211655782
5090000000.0 -1.0168585703144593 -0.015612646275703164
5095000000.0 -1.0166310702285903 -0.016147482229779204
5100000000.0 -1.017100564513827 -0.01588421122760535
5105000000.0 -1.0174573127796465 -0.015805553847474136
5110000000.0 -1.017398467019272 -0.01598598246083501
5115000000.0 -1.0172718524848159 -0.015840783735149022
5120000000.0 -1.017445749139745 -0.01603896394810585
5125000000.0 -1.0174995837388172 -0.01614596523953119
5130000000.0 -1.0176203114557107 -0.016070619795836114
5135000000.0 -1.0176831229271066 -0.016131075768633266
5140000000.0 -1.0175149709527376 -0.016168307157700783
5145000000.0 -1.0175829271360064 -0.016097173732504768
5150000000.0 -1.0177548159649754 -0.016446398804449657
5155000000.0 -1.0179516847160124 -0.016565253368520008
5160000000.0 -1.0177087201029724 -0.016464327047946477
5165000000.0 -1.0176228608624645 -0.01653883241512955
5170000000.0 -1.0178581092483225 -0.016601046953133615
5175000000.0 -1.0179949768846335 -0.01673911161808305
5180000000.0 -1.017789714211752 -0.016754606682113236
5185000000.0 -1.0178733382077922 -0.016770234867638165
5190000000.0 -1.0179659383092774 -0.016964139562941495
5195000000.0 -1.0179261711506955 -0.01692999612484303
5200000000.0 -1.0179297604665842 -0.016982303019044104
5205000000.0 -1.017970259949093 -0.017050280854515765
5210000000.0 -1.0181189524257368 -0.017243776866480588
5215000000.0 -1.0179945450507981 -0.017179270772620464
5220000000.0 -1.01799339265785 -0.017269250874898615
5225000000.0 -1.0179170999880611 -0.01733877463239913
5230000000.0 -1.0180122330474748 -0.017335294290155377
5235000000.0 -1.0179217019159346 -0.017323427587436296
5240000000.0 -1.017849098568208 -0.017364680004839504
5245000000.0 -1.018098765054624 -0.01759129727401303
5250000000.0 -1.0181401031877404 -0.017284608784505495
5255000000.0 -1.0175393880313344 -0.017505670213367217
5260000000.0 -1.0178999903754082 -0.017432882156757347
5265000000.0 -1.0177363082633426 -0.017757315049478015
5270000000.0 -1.0179003358796819 -0.01740509436308374
5275000000.0 -1.0175864352048085 -0.017678059213906517
5280000000.0 -1.0177775698976455 -0.017243396580147848
5285000000.0 -1.0175591226728598 -0.01726143979250318
5290000000.0 -1.0174636324406658 -0.017331245851310722
5295000000.0 -1.0170409066143513 -0.017440914553207256
5300000000.0 -1.0176577859525155 -0.017138410036870524
5305000000.0 -1.0175513570802739 -0.017555173705243093
5310000000.0 -1.0172935421989646 -0.017318065375992155
5315000000.0 -1.0172467829519576 -0.017393244390102914
5320000000.0 -1.0171286920482772 -0.01705623310163791
5325000000.0 -1.0168778245377408 -0.01745246240643294
5330000000.0 -1.0168916442043063 -0.017183631256948072
5335000000.0 -1.0169210120914514 -0.016583419659003607
5340000000.0 -1.016503442726603 -0.01684338767125204
5345000000.0 -1.0168051411579684 -0.017038061838668572
5350000000.0 -1.0163677176624453 -0.017200879322273144
5355000000.0 -1.0161375246068376 -0.016880627353322023
5360000000.0 -1.0161505502174426 -0.016668957108837083
5365000000.0 -1.0162087690212465 -0.016537901916865657
5370000000.0 -1.0160611989484436 -0.016628626610731476
5375000000.0 -1.0160472612001807 -0.016462547530578492
5380000000.0 -1.0155605269750625 -0.016259566076494987
5385000000.0 -1.0148977725255317 -0.01651718673452691
5390000000.0 -1.0153404651065558 -0.01624792447712852
5395000000.0 -1.0153298530500896 -0.015837166431303198
5400000000.0 -1.014956446224173 -0.01600874153810166
5405000000.0 -1.0146202723675186 -0.01570554544658445
5410000000.0 -1.014769223353574 -0.015477517467181708
5415000000.0 -1.0142299617191373 -0.015334569578949148
5420000000.0 -1.0141694208935987 -0.0153288739837683
5425000000.0 -1.0141211740441616 -0.015307112642407491
5430000000.0 -1.0141800751444001 -0.015470284414404222
5435000000.0 -1.0137349325143499 -0.014781294481954173
5440000000.0 -1.0133658413163231 -0.014902292707123205
5445000000.0 -1.0135233701582036 -0.014791567964439456
5450000000.0 -1.0131751862344323 -0.01466752387576214
5455000000.0 -1.013099296771644 -0.014394297593250114
5460000000.0 -1.0128749678444353 -0.013869330875719496
5465000000.0 -1.0125586670989728 -0.01401395399453588
5470000000.0 -1.0126706052894356 -0.013710208516141888
5475000000.0 -1.0125392160546989 -0.013740987749720598
5480000000.0 -1.0122220885583797 -0.01330746789984711
5485000000.0 -1.0119878717618365 -0.01319876638449186
5490000000.0 -1.0118984706332586 -0.013218956116441388
5495000000.0 -1.0117961743936321 -0.012891683105813432
5500000000.0 -1.0115328710508817 -0.012733137273296544
5505000000.0 -1.0113340550471976 -0.01257007262909579
5510000000.0 -1.0113212378114804 -0.01238495684448415
5515000000.0 -1.010989545081852 -0.012387230371416176
5520000000.0 -1.0108871908188737 -0.012088731157849484
5525000000.0 -1.010785750936797 -0.011795227552704974
5530000000.0 -1.0104681962138184 -0.011732786063343732
5535000000.0 -1.0105367783863435 -0.011581282589146794
5540000000.0 -1.0102320312631121 -0.011300211093578906
5545000000.0 -1.0100454858776546 -0.011209899879506045
5550000000.0 -1.0097868953088787 -0.011015855735086146
5555000000.0 -1.0097127710690896 -0.010609605440370321
5560000000.0 -1.0095852732857238 -0.010648621367824577
5565000000.0 -1.0092120724974802 -0.010641038506149742
5570000000.0 -1.0089965911226344 -0.01019050105275105
5575000000.0 -1.0090191121061511 -0.00978023558481906
5580000000.0 -1.0089597504527845 -0.009704512737443207
5585000000.0 -1.0082990958541485 -0.009873857111602715
5590000000.0 -1.008660302667158 -0.009434020931386613
5595000000.0 -1.0084513307618217 -0.009411841332773894
5600000000.0 -1.0080581922473724 -0.009237936307958636
5605000000.0 -1.0080148727289318 -0.009315923572126864
5610000000.0 -1.007861043617638 -0.008649721923333714
5615000000.0 -1.0074887454391002 -0.008453493341320558
5620000000.0 -1.0074493423127069 -0.008490565064158698
5625000000.0 -1.007158837437736 -0.008638105118751804
5630000000.0 -1.007686861444035 -0.008264336248771688
5635000000.0 -1.0071094335905157 -0.008092973668148052
5640000000.0 -1.0070863329487614 -0.008146295816801681
5645000000.0 -1.007122264058228 -0.007393183251405614
5650000000.0 -1.006902449106284 -0.0074419211746609495
5655000000.0 -1.0066069690694361 -0.007573582392422214
5660000000.0 -1.0067321962853912 -0.007025531468659058
5665000000.0 -1.0064084607046513 -0.006935811218888362
5670000000.0 -1.0062674382163022 -0.0069862828927011915
5675000000.0 -1.0062018816967935 -0.006891289506484562
5680000000.0 -1.0058758289111966 -0.0070006467022148845
5685000000.0 -1.0058392887412806 -0.006401627898458605
5690000000.0 -1.0055287608756174 -0.006455058498236752
5695000000.0 -1.0056891233112424 -0.0067133321387820724
5700000000.0 -1.0056406523855739 -0.006207392266761412
5705000000.0 -1.0053081915474036 -0.005882167359807553
5710000000.0 -1.0050988588710985 -0.005958411946683365
5715000000.0 -1.005033049250243 -0.005706561164212572
5720000000.0 -1.0048807589166646 -0.005610284117987821
5725000000.0 -1.0047278465611067 -0.005420827093913059
5730000000.0 -1.0045828796702811 -0.005427268872762141
5735000000.0 -1.0046591529784472 -0.005135809286502464
5740000000.0 -1.004398610355836 -0.005008923883967036
5745000000.0 -1.0041645044288319 -0.00487131336920206
5750000000.0 -1.0042003089626017 -0.004753600430053832
5755000000.0 -1.0040062827402316 -0.004632522652158626
5760000000.0 -1.0039822553830333 -0.004517775277087519
5765000000.0 -1.0037594936248446 -0.004322361789064558
5770000000.0 -1.0037009581324356 -0.004229631124303727
5775000000.0 -1.0035274506303407 -0.004011904720985994
5780000000.0 -1.0034917652916189 -0.004160495410686961
5785000000.0 -1.0031554763947481 -0.004149874083582411
5790000000.0 -1.0031856649008695 -0.003780958262727349
5795000000.0 -1.0031195569048066 -0.0036944122610019074
5800000000.0 -1.0029933200496548 -0.0037871831209024295
5805000000.0 -1.0028622542427679 -0.0035732332443491797
5810000000.0 -1.0027860601268241 -0.003389941994436445
5815000000.0 -1.002646489595212 -0.0032968968813701692
5820000000.0 -1.002530195209619 -0.0032582821399158445
5825000000.0 -1.0023182777966386 -0.0031444076523243383
5830000000.0 -1.002535620264601 -0.003238212376327347
5835000000.0 -1.0023546656763482 -0.0030282354984403643
5840000000.0 -1.0024255205051837 -0.0029050693252417343
5845000000.0 -1.002213671403437 -0.002610029009090515
5850000000.0 -1.0024107464671241 -0.0026989994455998683
5855000000.0 -1.0019730833736031 -0.002714364546612531
5860000000.0 -1.0017602873496012 -0.002778287095281842
5865000000.0 -1.0016351539402961 -0.0024416922197506895
5870000000.0 -1.0016481274190632 -0.00198283506436339
5875000000.0 -1.0019184620533066 -0.0022462326008139575
5880000000.0 -1.0013186077734382 -0.0021425460260280364
5885000000.0 -1.0017202368499587 -0.0024199929025280707
5890000000.0 -1.0016245918475626 -0.0024219470584235015
5895000000.0 -1.0014367053643578 -0.0023994873528776265
5900000000.0 -1.0014258756804078 -0.0019115033399610645
5905000000.0 -1.00146524902393 -0.0016870442574669741
5910000000.0 -1.0016727052680028 -0.0013388271138588795
5915000000.0 -1.001397144398571 -0.0018751297549820952
5920000000.0 -1.0011892445526733 -0.0019170977057720914
5925000000.0 -1.0013093431173945 -0.0014955571615192008
5930000000.0 -1.0014632541466195 -0.0017652938564058258
5935000000.0 -1.000422287238492 -0.0014513487726664014
5940000000.0 -1.001386609940661 -0.0021133641655185632
5945000000.0 -1.0013952602467169 -0.0022240513849992416
5950000000.0 -1.0008758359662222 -0.0016942790704649663
5955000000.0 -1.0009774687555875 -0.001784825520955439
5960000000.0 -1.0012881643834088 -0.001390583280609113
5965000000.0 -1.0005890621787243 -0.001684433118691312
5970000000.0 -1.0010778562494418 -0.0017235724114939524
5975000000.0 -1.000797728977864 -0.0014912471612186634
5980000000.0 -1.0009527984515643 -0.0017395342935701032
5985000000.0 -1.0008197448078233 -0.001798064251657312
5990000000.0 -1.000944873452536 -0.0015541481440127006
5995000000.0 -1.001276831088165 -0.0014766873631533715
6000000000.0 -1.0012103955108926 -0.001418242180328797
