! Created with skrf 1.12.0 (http://scikit-rf.org).
# Hz S RI R 50.0 
!freq ReS11 ImS11
!
100000000.0 0.6842886805534296 -0.4091668128967309
200000000.0 0.35371938347816556 -0.6936659812927215
300000000.0 -0.09570223838090275 -0.7438713312149012
400000000.0 -0.5039108395576261 -0.5131424665451311
500000000.0 -0.695458233356477 -0.07180335372682
600000000.0 -0.576078057289093 0.3985823690891695
700000000.0 -0.1986682862043226 0.6946351528167777
800000000.0 0.26555508375167886 0.7048242092132515
900000000.0 0.6313769221305872 0.4573993086814838
1000000000.0 0.792361080646511 0.07317356020212201
1100000000.0 0.7363207936286928 -0.3193144500255662
1200000000.0 0.5009228587150567 -0.6284644603729208
1300000000.0 0.13824680447579024 -0.788032412528986
1400000000.0 -0.2755452990531424 -0.7405755519867128
1500000000.0 -0.6200243830681206 -0.46329945325846356
1600000000.0 -0.7567093968391443 -0.018090970814187795
1700000000.0 -0.6060373187065015 0.4390409588813998
1800000000.0 -0.21289661526679068 0.7242576479911851
1900000000.0 0.26487070322036593 0.7276148200035091
2000000000.0 0.6441937088966324 0.4698884785175358
2100000000.0 0.8119769692420952 0.07234291732311292
2200000000.0 0.7576503753662142 -0.3263289034366654
2300000000.0 0.5353639125823944 -0.6332914233207664
2400000000.0 0.2088576853275328 -0.8051217198371877
2500000000.0 -0.16661320626730014 -0.8157227039337315
2600000000.0 -0.5225744247436881 -0.642235279083229
2700000000.0 -0.7604010105132795 -0.29248493909842194
2800000000.0 -0.778963387012492 0.15626668930049273
2900000000.0 -0.5376378297805481 0.5584791898727659
3000000000.0 -0.10264600813389106 0.7600480318069465
3100000000.0 0.36951458454131425 0.6807935237884538
3200000000.0 0.7081478238105751 0.35908752679824946
3300000000.0 0.8119311332702609 -0.07452263683080657
3400000000.0 0.6830785274505656 -0.4725329279899615
3500000000.0 0.3970167636871392 -0.7374849915504454
3600000000.0 0.04335244372486532 -0.8379786610603377
3700000000.0 -0.3103477954864733 -0.7791756391525143
3800000000.0 -0.611155033111605 -0.5710009336471236
3900000000.0 -0.7956098318100076 -0.2310330867767081
4000000000.0 -0.7905886173248301 0.18361726403237782
4100000000.0 -0.5557409524917611 0.5582755804061937
4200000000.0 -0.13521319627767056 0.7532940506935066
4300000000.0 0.33380517363548 0.6777139902114879
4400000000.0 0.6781120896339377 0.35067906975746105
4500000000.0 0.7775684595108024 -0.10116539150476497
4600000000.0 0.6223554611206049 -0.5127842426300109
4700000000.0 0.29894083738327404 -0.7651109099388136
4800000000.0 -0.07612843811511914 -0.8240096569061265
4900000000.0 -0.41606515645976977 -0.7164326906204442
5000000000.0 -0.673859059810625 -0.48152899742128996
5100000000.0 -0.8122239708900468 -0.14987057447435226
5200000000.0 -0.7825886607170173 0.233315870165795
5300000000.0 -0.5491635799407614 0.5770650506019953
5400000000.0 -0.14183050394055907 0.7559762001037593
5500000000.0 0.31759983301162675 0.6745116114616394
5600000000.0 0.6564187407493633 0.3386463820934256
5700000000.0 0.7415243387222247 -0.1283796280622476
5800000000.0 0.5535863041877715 -0.5478465557098352
5900000000.0 0.18798302114009377 -0.7815967202186589
6000000000.0 -0.21412898600105973 -0.790588498115523
6100000000.0 -0.5443128943443025 -0.6192656159401203
6200000000.0 -0.7539427280425751 -0.3354071080685188
6300000000.0 -0.8241280913352959 0.010238904505950849
6400000000.0 -0.7298642992973459 0.37036103010175153
6500000000.0 -0.4509024918079621 0.6634789705276284
6600000000.0 -0.02498526498675069 0.7742851972579929
6700000000.0 0.4181383550167043 0.6171720623970038
6800000000.0 0.6981716156005833 0.2163573205471041
6900000000.0 0.6877396702766386 -0.27658382058143993
7000000000.0 0.3968959152698451 -0.6599795818328842
7100000000.0 -0.035878051072354866 -0.7995539307594343
7200000000.0 -0.4395606815814942 -0.6909038424491925
7300000000.0 -0.708272993564621 -0.4222379326820083
7400000000.0 -0.8202456235885573 -0.08710663020615488
7500000000.0 -0.7826715111732525 0.2611970305442705
7600000000.0 -0.5839892625808732 0.5774847269058215
7700000000.0 -0.21976411342618463 0.7734968066215612
7800000000.0 0.23570013046264165 0.7340947389602686
7900000000.0 0.6087720394134448 0.41161912679672474
8000000000.0 0.7131274938583348 -0.0919017568230632
8100000000.0 0.4843659102916664 -0.5547932982444751
8200000000.0 0.03701399266720443 -0.7739065885543839
8300000000.0 -0.41751945018763986 -0.6933445930481215
8400000000.0 -0.7178396582603505 -0.4090177416801367
8500000000.0 -0.8274468779563928 -0.05849787965420437
8600000000.0 -0.7830383181572059 0.2802877426147199
8700000000.0 -0.6010351181030434 0.580758094787577
8800000000.0 -0.2667129933834207 0.7851760387420565
8900000000.0 0.1787840276956519 0.7772712707519542
9000000000.0 0.5721150636672929 0.4757508039474508
9100000000.0 0.6970447897911065 -0.04041533917188623
9200000000.0 0.45368009805679854 -0.5288713574409473
9300000000.0 -0.03875388205050987 -0.7416492700576818
9400000000.0 -0.5229969024658337 -0.6053686738014045
9500000000.0 -0.7976938486099446 -0.24901165068142947
9600000000.0 -0.8333750367164472 0.13823580741889108
9700000000.0 -0.7103216052055309 0.45715633034707787
9800000000.0 -0.4804281592368806 0.70034223794939
9900000000.0 -0.13340349495410997 0.8369928002357484
10000000000.0 0.2950664162635877 0.7591542005538948
