! Created with skrf 1.12.0 (http://scikit-rf.org).
# Hz S RI R 50.0 
!freq ReS11 ImS11
!
100000000.0 0.9299932718277012 -0.27557671070099204
200000000.0 0.799644291400915 -0.5229542255401595
300000000.0 0.5929697155952375 -0.7293233275413521
400000000.0 0.2979829311370862 -0.8706811666488634
500000000.0 -0.08186213672161069 -0.8780137300491364
600000000.0 -0.46365162730214143 -0.6683301925659342
700000000.0 -0.6834878325462436 -0.24102710187432108
800000000.0 -0.5996080040931963 0.25909212231631173
900000000.0 -0.2194938659668385 0.6034610271453699
1000000000.0 0.27837255597114025 0.633199632167817
1100000000.0 0.6624629497528104 0.367703080177309
1200000000.0 0.8011680245399521 -0.02983224391937205
1300000000.0 0.716011464595796 -0.38743707537650807
1400000000.0 0.507747888565061 -0.6279481649398885
1500000000.0 0.2506215572357194 -0.7598486542701697
1600000000.0 -0.03903092443942361 -0.7972230315208414
1700000000.0 -0.3496177792549291 -0.7114341855049063
1800000000.0 -0.6155941486358772 -0.46451437473295165
1900000000.0 -0.7269459962844866 -0.08012648671860684
2000000000.0 -0.6025968194007817 0.32796329259872603
2100000000.0 -0.2602941095829402 0.6038973927497692
2200000000.0 0.17798882722854723 0.637455046176906
2300000000.0 0.5491861104965184 0.4248861372470826
2400000000.0 0.7333403229713429 0.06272377073764768
2500000000.0 0.7022990584373521 -0.3140046894550307
2600000000.0 0.5077797174453691 -0.6016047596931446
2700000000.0 0.22871275246143838 -0.7590125203132587
2800000000.0 -0.0755024626851116 -0.7885450720787077
2900000000.0 -0.37026381492616456 -0.6960316300392069
3000000000.0 -0.6154469251632723 -0.47572273015975614
3100000000.0 -0.7421293258667092 -0.13810323178761863
3200000000.0 -0.6747205853462226 0.24909840524197402
3300000000.0 -0.39086389541629996 0.5582975745200797
3400000000.0 0.03350466862321231 0.6591750979423537
3500000000.0 0.44353058934211315 0.499206185340883
3600000000.0 0.6854659914970396 0.14243118464946353
3700000000.0 0.6890228986740141 -0.26777508854866655
3800000000.0 0.4904862046241794 -0.5926362872123694
3900000000.0 0.18654124438762987 -0.7625039815902656
4000000000.0 -0.1338794529438023 -0.7789680361747762
4100000000.0 -0.4217264950274964 -0.6700400114059779
4200000000.0 -0.6480155587196055 -0.45208218693737834
4300000000.0 -0.7682679295539877 -0.13677488267422125
4400000000.0 -0.720625877380386 0.22952365875240618
4500000000.0 -0.47066619992256203 0.5435333251953133
4600000000.0 -0.06523366272448895 0.6776545047759992
4700000000.0 0.35989809036254417 0.5545768737792951
4800000000.0 0.63966155052185 0.20726782083511308
4900000000.0 0.6700998544693031 -0.2282532304525335
5000000000.0 0.46264979243278875 -0.588000953197482
5100000000.0 0.12210948765277442 -0.7674505710601832
5200000000.0 -0.229080066084815 -0.7563226222992128
5300000000.0 -0.514527082443195 -0.6035789847374357
5400000000.0 -0.7074896693229588 -0.35773989558220837
5500000000.0 -0.788466215133667 -0.04472659528259916
5600000000.0 -0.7169443964958008 0.30000317096714824
5700000000.0 -0.4597482979298013 0.5912756919860533
5800000000.0 -0.05304115638137036 0.7069892287254372
5900000000.0 0.3710265457630157 0.5627357959747334
6000000000.0 0.637836337089539 0.1881964802741969
6100000000.0 0.6335582137107815 -0.26874127984046936
6200000000.0 0.37530755996703524 -0.6244282126426717
6300000000.0 -0.010110089555382649 -0.7647174000740011
6400000000.0 -0.37668427824974415 -0.6894001960754425
6500000000.0 -0.6380298733710851 -0.4705399870872979
6600000000.0 -0.7736143469810397 -0.17864561080938124
6700000000.0 -0.7783882617950502 0.14724171161650468
6800000000.0 -0.6278818249702653 0.465398520231214
6900000000.0 -0.30790886282924934 0.6883318424224721
7000000000.0 0.1204284951090797 0.7009179592132596
7100000000.0 0.5014317631721509 0.445050001144409
7200000000.0 0.6576258540153519 -0.004367675166577135
7300000000.0 0.5084178447723395 -0.45646077394485857
7400000000.0 0.1310949176549863 -0.7178895473480199
7500000000.0 -0.2954424023628758 -0.7112305760383416
7600000000.0 -0.6147978901863146 -0.49682101607321355
7700000000.0 -0.7715183496475402 -0.18979279696934692
7800000000.0 -0.7825275063514718 0.13306006789205962
7900000000.0 -0.6573624014854605 0.4406398832797679
8000000000.0 -0.37680602073665187 0.6798037886619785
8100000000.0 0.03647477924823593 0.7394357323646569
8200000000.0 0.44606173038483016 0.5224251151084887
8300000000.0 0.6439360380172716 0.06747340410947798
8400000000.0 0.5014414191245992 -0.4212734997272479
8500000000.0 0.0871518254280102 -0.6999866962432872
8600000000.0 -0.37814751267438723 -0.6611676812171657
8700000000.0 -0.6933102011680795 -0.38833191990848237
8800000000.0 -0.8022616505622858 -0.043318837881102336
8900000000.0 -0.756173133850103 0.27747911214828197
9000000000.0 -0.5881958007812937 0.5577316880225717
9100000000.0 -0.27588811516756856 0.7560907006263945
9200000000.0 0.155570015311241 0.7503331303596469
9300000000.0 0.5361878871917687 0.44256711006164323
9400000000.0 0.6272894740104694 -0.08011893182992993
9500000000.0 0.33211499452591187 -0.5412842035293599
9600000000.0 -0.18670462071889873 -0.6787441372871601
9700000000.0 -0.6325865387916804 -0.45750045776363424
9800000000.0 -0.819779157638557 -0.06377723067995575
9900000000.0 -0.7741466164588643 0.3004002869129835
10000000000.0 -0.604062676429739 0.5732612609863327
