! Created with skrf 1.12.0 (http://scikit-rf.org).
# Hz S RI R 50.0 
!freq ReS11 ImS11
!
100000000.0 0.87665742635729 -0.5950527191162218
200000000.0 0.3638863563537549 -0.9631733894348036
300000000.0 -0.2753911316395114 -0.9488839507102911
400000000.0 -0.7774199247360017 -0.542036294937164
500000000.0 -0.9187875986099228 0.08955154567955831
600000000.0 -0.6389147043227614 0.6641914248466978
700000000.0 -0.08039559423922772 0.9339009523391766
800000000.0 0.4984315335750618 0.816040575504299
900000000.0 0.8750740289688103 0.41006028652191545
1000000000.0 0.9597188234329175 -0.09901973605155973
1100000000.0 0.780486285686492 -0.5516414642333927
1200000000.0 0.41143634915351085 -0.8502056598663322
1300000000.0 -0.06450460106135109 -0.930358052253726
1400000000.0 -0.5353188514710112 -0.746319949626879
1500000000.0 -0.8464958667754965 -0.31314536929134457
1600000000.0 -0.8561023473739652 0.2431792318820823
1700000000.0 -0.5323540568351209 0.7094452381134482
1800000000.0 -0.00029201889993259037 0.8945378065109206
1900000000.0 0.5206946134567252 0.7417092323303172
2000000000.0 0.8442206978797923 0.34866070747374944
2100000000.0 0.9048714041709929 -0.11520481854677232
2200000000.0 0.7463986873626695 -0.513514280319209
2300000000.0 0.4467673003673616 -0.7829485535621618
2400000000.0 0.0652469396591255 -0.8993396162986746
2500000000.0 -0.34569546580318194 -0.8343662023544182
2600000000.0 -0.7001413106918536 -0.5637568831443573
2700000000.0 -0.8772172927856539 -0.11982607096429561
2800000000.0 -0.7807748913765201 0.3747352957725089
2900000000.0 -0.4142052829265281 0.7420793771743959
3000000000.0 0.09790972620248119 0.8391284942626922
3100000000.0 0.5666674375534025 0.636300206184389
3200000000.0 0.8349924087524422 0.22725339233875183
3300000000.0 0.8453816771507252 -0.2323617637157387
3400000000.0 0.6398150324821449 -0.6068859100341762
3500000000.0 0.30748453736305076 -0.8263456225395176
3600000000.0 -0.06912333518266886 -0.8770787715911896
3700000000.0 -0.4299797713756527 -0.7654957175254854
3800000000.0 -0.7173951268196238 -0.499532818794236
3900000000.0 -0.8575617671012931 -0.10713454335925539
4000000000.0 -0.7787742614745925 0.33155569434170523
4100000000.0 -0.46319007873530654 0.6824644207954764
4200000000.0 0.010785925202064615 0.808373212814327
4300000000.0 0.48154824972152654 0.6459622383117621
4400000000.0 0.777818024158478 0.25166219472885615
4500000000.0 0.8058776855468771 -0.22374430298805978
4600000000.0 0.5882399082183788 -0.6167291998863261
4700000000.0 0.2294018864631607 -0.8287261724472055
4800000000.0 -0.15647561848163058 -0.8463576436042785
4900000000.0 -0.49436372518538685 -0.7035073041915924
5000000000.0 -0.7422469854354967 -0.43462380766866476
5100000000.0 -0.8561005592346094 -0.06838789582259876
5200000000.0 -0.7799319028854311 0.3383815288543938
5300000000.0 -0.4854237437247843 0.6752887368202459
5400000000.0 -0.02772303298116024 0.8079099655151404
5500000000.0 0.4438639879226737 0.6555020809173551
5600000000.0 0.74833470582962 0.2566809058189434
5700000000.0 0.7712038159370391 -0.23686249554157046
5800000000.0 0.5249011516571102 -0.6413531303405733
5900000000.0 0.12665480375289365 -0.8366001844406128
6000000000.0 -0.2821204662323563 -0.8062534332275177
6100000000.0 -0.6056856513023466 -0.6043188571929826
6200000000.0 -0.8031470179558069 -0.29417157173150454
6300000000.0 -0.8507514595985399 0.07724858075384253
6400000000.0 -0.7162859439849899 0.453449517488464
6500000000.0 -0.38616615533832593 0.7356404066085627
6600000000.0 0.07831551879644373 0.8014523983001729
6700000000.0 0.5231131315231293 0.5813046693801946
6800000000.0 0.7639180421829178 0.13093824684619854
6900000000.0 0.6950246691703791 -0.3739987015724199
7000000000.0 0.35742485523224315 -0.7326406240463267
7100000000.0 -0.09333872795104795 -0.832407891750331
7200000000.0 -0.49167668819421434 -0.6908822655678168
7300000000.0 -0.7473056912422009 -0.40197211503986646
7400000000.0 -0.8455836772918708 -0.05144995078441665
7500000000.0 -0.7874615192413089 0.311852425336904
7600000000.0 -0.5550302863120802 0.6333324313164007
7700000000.0 -0.1528463512658814 0.8099322319030776
7800000000.0 0.32203224301338773 0.7255303859710688
7900000000.0 0.6788945198059032 0.35339108109474265
8000000000.0 0.738147675991059 -0.17572957277297535
8100000000.0 0.46279275417328014 -0.6277113556861905
8200000000.0 -0.007414011284704598 -0.8132199048995937
8300000000.0 -0.4581284224986955 -0.7018938660621745
8400000000.0 -0.7446429133415221 -0.402987241744989
8500000000.0 -0.8454166054725623 -0.046832911670213105
8600000000.0 -0.7943890690803568 0.3014872074127121
8700000000.0 -0.594742119312317 0.6138146519660718
8800000000.0 -0.22952088713650914 0.8155198693275337
8900000000.0 0.24174956977367357 0.7785640954971313
9000000000.0 0.6324493885040249 0.43343752622604526
9100000000.0 0.7233467698097222 -0.1120476275682453
9200000000.0 0.4378785789012884 -0.5963952541351293
9300000000.0 -0.07663798332214783 -0.7806030511856027
9400000000.0 -0.5565177798270843 -0.6176161170006093
9500000000.0 -0.817870497703555 -0.2521292865276302
9600000000.0 -0.8489279747009247 0.1350719183683277
9700000000.0 -0.7267839312553289 0.4614519178867574
9800000000.0 -0.48603326082230025 0.7194145321845932
9900000000.0 -0.11125019192695154 0.8583969473838845
10000000000.0 0.34222808480263395 0.7556238770484905
