! Created with skrf 1.12.0 (http://scikit-rf.org).
# Hz S RI R 50.0 
!freq ReS11 ImS11
!
100000000.0 0.6633874177932848 -0.9338753223419441
200000000.0 -0.40060222148892 -0.7886456847191036
300000000.0 -0.7114506363868656 0.17601887881759132
400000000.0 -0.06260059773922441 0.8438868522644069
500000000.0 0.7365263700485438 0.6764866113663024
600000000.0 1.038857817649878 0.08745535463095101
700000000.0 0.9250568747520674 -0.38757979869842807
800000000.0 0.7053683996200598 -0.6699671149253877
900000000.0 0.44364094734191556 -0.8797487616538973
1000000000.0 0.08479108661412481 -0.9984627366065674
1100000000.0 -0.3264111876487711 -0.9423277974128682
1200000000.0 -0.6963402032852456 -0.6936615705489813
1300000000.0 -0.9388200640678581 -0.25990748405449826
1400000000.0 -0.9209138154983503 0.3074876964092273
1500000000.0 -0.5406129360199154 0.8064811229705737
1600000000.0 0.085861757397654 0.97161531448364
1700000000.0 0.6566351056098951 0.728321909904481
1800000000.0 0.9477978944778461 0.2532469332218177
1900000000.0 0.951988279819486 -0.23143620789050473
2000000000.0 0.764137566089635 -0.619092166423796
2100000000.0 0.45394527912139354 -0.8796699643135089
2200000000.0 0.07302334159612016 -0.9877554178237951
2300000000.0 -0.3162120878696248 -0.932289183139803
2400000000.0 -0.661673545837349 -0.7230929136276677
2500000000.0 -0.9123800992965876 -0.3611567616462235
2600000000.0 -0.9722979664802545 0.13377220928668082
2700000000.0 -0.735309839248631 0.6402465701103438
2800000000.0 -0.21399329602716197 0.9421092271804885
2900000000.0 0.39925652742385964 0.8770583868026758
3000000000.0 0.8447740674018841 0.47544917464255987
3100000000.0 0.9742677807807966 -0.06676032394170714
3200000000.0 0.8154939413070752 -0.5425182580947833
3300000000.0 0.48891514539719044 -0.848645091056822
3400000000.0 0.09946323186158973 -0.975284993648529
3500000000.0 -0.29108071327206586 -0.9381765127182092
3600000000.0 -0.6346982717513905 -0.7496267557144329
3700000000.0 -0.8811353445053102 -0.42823025584221364
3800000000.0 -0.9768550992012031 -0.004235654137947841
3900000000.0 -0.8559883832931787 0.4641001224517295
4000000000.0 -0.4691461026669037 0.8467658162116752
4100000000.0 0.11942615360021022 0.9543709158897409
4200000000.0 0.6824700236320411 0.6766523122787507
4300000000.0 0.9591800570487965 0.12034310400485976
4400000000.0 0.8609338402748123 -0.45063146948814714
4500000000.0 0.5093011856079052 -0.8276207447052001
4600000000.0 0.07853411883115584 -0.9685817360878003
4700000000.0 -0.33213949203489984 -0.9184133410453847
4800000000.0 -0.6746133565902375 -0.7127277851105109
4900000000.0 -0.8999058604240655 -0.38485759496683486
5000000000.0 -0.9715437293052724 0.013072432950103513
5100000000.0 -0.8668842315673694 0.4314518570900188
5200000000.0 -0.5469194650650258 0.7992833256721305
5300000000.0 -0.012513742782172972 0.9646812081336951
5400000000.0 0.5745607614517272 0.7653707265853857
5500000000.0 0.9273309707641636 0.22324959933757102
5600000000.0 0.8686112761497458 -0.40492093563080167
5700000000.0 0.4815717637538948 -0.8355473875999396
5800000000.0 -0.01213987171649821 -0.9679715633392348
5900000000.0 -0.4518271386622929 -0.8607603907585372
6000000000.0 -0.7742498517036723 -0.5950769782065972
6100000000.0 -0.9476279020309368 -0.23198753595355345
6200000000.0 -0.9549925923347637 0.1666633486747045
6300000000.0 -0.794532001018563 0.5491186380385839
6400000000.0 -0.4478263556957532 0.85673600435256
6500000000.0 0.07997461408376426 0.959877490997316
6600000000.0 0.6362445354461699 0.7073464989662088
6700000000.0 0.9341464042663583 0.12276305258274112
6800000000.0 0.7906933426856944 -0.5199816823005683
6900000000.0 0.30845618247986545 -0.9076315760612491
7000000000.0 -0.24224719405176873 -0.9363364577293372
7100000000.0 -0.6641942262649164 -0.7063156366348623
7200000000.0 -0.9037137627601937 -0.3519988358020063
7300000000.0 -0.9682226181030241 0.04309939220545545
7400000000.0 -0.8687936663627263 0.4265576899052318
7500000000.0 -0.6078603863716058 0.7539283037185706
7600000000.0 -0.17670865356915968 0.9518523812294092
7700000000.0 0.37311774492264 0.8819348812103277
7800000000.0 0.8274955153465242 0.44158613681793335
7900000000.0 0.8969230055809039 -0.23794610798359092
8000000000.0 0.4978648722171776 -0.7983534932136562
8100000000.0 -0.12736268341541873 -0.9540457725524846
8200000000.0 -0.6439507007598407 -0.7265185713768361
8300000000.0 -0.9059439897537424 -0.33106186985964364
8400000000.0 -0.956459283828739 0.07167930901042961
8500000000.0 -0.8578379154205671 0.438763350248276
8600000000.0 -0.616402685642303 0.7521571516990199
8700000000.0 -0.21984723210327783 0.9505387544632079
8800000000.0 0.29692739248275973 0.9159377217292736
8900000000.0 0.7661147713661228 0.5306107997894238
9000000000.0 0.8923233747482313 -0.14583800733089541
9100000000.0 0.4983644783496831 -0.7660802006721522
9200000000.0 -0.2088555842638642 -0.9346666932105843
9300000000.0 -0.7790528535843201 -0.6063631772994663
9400000000.0 -0.9671104550361652 -0.10052720457316328
9500000000.0 -0.8907388448715121 0.3022335171699915
9600000000.0 -0.7290331721305663 0.5973309874534894
9700000000.0 -0.47278317809098175 0.8571200966835444
9800000000.0 -0.04981222376227446 1.0007729530334162
9900000000.0 0.4634879827499327 0.8603929877281241
10000000000.0 0.8313438892364498 0.3709415197372498
