! Created with skrf 1.12.0 (http://scikit-rf.org).
# Hz S RI R 50.0 
!freq ReS11 ImS11
!
100000000.0 0.9741126894951229 -0.2924105226993619
200000000.0 0.8314491510391288 -0.531488716602319
300000000.0 0.6485952138900799 -0.7203467488288906
400000000.0 0.4121747314930036 -0.8923922777175867
500000000.0 0.05180285498499197 -1.0118368864059033
600000000.0 -0.4359129667282674 -0.9288526177406181
700000000.0 -0.8671343326568602 -0.5062862038611732
800000000.0 -0.9497024416923522 0.17184878885747298
900000000.0 -0.5505079030990784 0.770516395568836
1000000000.0 0.13360288739204249 0.9556282162666315
1100000000.0 0.7265254855155954 0.6783032417297337
1200000000.0 0.9890672564506378 0.17308634519576738
1300000000.0 0.9470920562744147 -0.2994313240051191
1400000000.0 0.7427942752838149 -0.6413497328758206
1500000000.0 0.45804765820502874 -0.8685810565948455
1600000000.0 0.10702902823687326 -0.9835782051086388
1700000000.0 -0.28523543477050234 -0.9509767293930261
1800000000.0 -0.6579647660254853 -0.7398130297661367
1900000000.0 -0.9223337173461876 -0.3425618112087461
2000000000.0 -0.9564105272293235 0.1944541037082195
2100000000.0 -0.6590529680251491 0.7112237811089048
2200000000.0 -0.08161494880914807 0.967312872409823
2300000000.0 0.5318664908409205 0.8220916986465444
2400000000.0 0.9128014445304913 0.3710693418979665
2500000000.0 0.9714661836624141 -0.1489403992891311
2600000000.0 0.7966488003730717 -0.5669854879379275
2700000000.0 0.4993647038936612 -0.8433124423026997
2800000000.0 0.1331170648336466 -0.9783602356910702
2900000000.0 -0.25873279571536467 -0.9545241594314458
3000000000.0 -0.6121797561645559 -0.7678169012069647
3100000000.0 -0.8700283765793053 -0.4391348958014985
3200000000.0 -0.9724337458610518 0.009385157376491699
3300000000.0 -0.8259468674660061 0.5123831629752534
3400000000.0 -0.3778755664824905 0.8925344347954047
3500000000.0 0.24770058691500998 0.9354316592216534
3600000000.0 0.7713475823402456 0.5890367627143869
3700000000.0 0.9733189344406098 0.03488659858703602
3800000000.0 0.849155604839321 -0.4771008789539406
3900000000.0 0.5335793495178148 -0.8154954314231911
4000000000.0 0.14338919520378546 -0.9695581793785132
4100000000.0 -0.257613569498063 -0.9517477750778177
4200000000.0 -0.6104911565781128 -0.7720065116881997
4300000000.0 -0.8594161272048806 -0.4632315933704737
4400000000.0 -0.9693122506141608 -0.06448974460369306
4500000000.0 -0.8913972377777127 0.38805100321768227
4600000000.0 -0.5582181811333075 0.7947164177894391
4700000000.0 0.006150199100373121 0.9642349481582655
4800000000.0 0.5956101417541543 0.7500969767570478
4900000000.0 0.9331384897232035 0.2209403365850493
5000000000.0 0.8917708992958044 -0.3699894547462404
5100000000.0 0.5627905130386349 -0.7916680574417166
5200000000.0 0.12140534818172216 -0.9676963686943065
5300000000.0 -0.3073631227015972 -0.9290735125541864
5400000000.0 -0.6575865745544371 -0.7256217598915162
5500000000.0 -0.8872799873351727 -0.40569102764136733
5600000000.0 -0.9717647433280986 -0.017070513218574362
5700000000.0 -0.8862706422805838 0.40054842829703025
5800000000.0 -0.5856102705002303 0.7776765227317494
5900000000.0 -0.06747499108315137 0.9646618366241446
6000000000.0 0.5191718339919988 0.8014773130416869
6100000000.0 0.9029060602188111 0.2914375364780421
6200000000.0 0.8924189805984474 -0.3395518958568568
6300000000.0 0.5310966372489997 -0.8071492314338693
6400000000.0 0.026542915031307433 -0.9727134704589838
6500000000.0 -0.4321698546409078 -0.8723274469375921
6600000000.0 -0.7596455216407908 -0.6053344607353063
6700000000.0 -0.9370782971382285 -0.24948920309538303
6800000000.0 -0.9591020345687843 0.1465190798044496
6900000000.0 -0.8086344599723905 0.540607333183267
7000000000.0 -0.45740106701851885 0.8580543994903491
7100000000.0 0.07433488219976284 0.9597668051719627
7200000000.0 0.6268283724784856 0.708593726158137
7300000000.0 0.9278919100761439 0.13162972033023856
7400000000.0 0.7946376800537174 -0.5146180987358039
7500000000.0 0.3080130815506061 -0.9151536822319033
7600000000.0 -0.2602246105670971 -0.9399628043174738
7700000000.0 -0.6833091378211533 -0.6884752511978635
7800000000.0 -0.903997242450728 -0.3256466984748511
7900000000.0 -0.9591423273086491 0.060521792620467786
8000000000.0 -0.8619040250778188 0.44672605395318077
8100000000.0 -0.5812367200851484 0.786983966827393
8200000000.0 -0.1088416203856542 0.9649049043655389
8300000000.0 0.4521060287952512 0.8312296271324153
8400000000.0 0.8572682142257713 0.33224704861640275
8500000000.0 0.8457068204879753 -0.35504847764968855
8600000000.0 0.37665727734566185 -0.869287252426146
8700000000.0 -0.2791443169117224 -0.9409673213958644
8800000000.0 -0.763875603675876 -0.6227065324782859
8900000000.0 -0.9416081905365009 -0.18355549871918664
9000000000.0 -0.9186300635338023 0.19730813801281638
9100000000.0 -0.7924549579620102 0.5351232290268368
9200000000.0 -0.5098561644553713 0.8487833142280854
9300000000.0 -0.015649687498804722 0.9969218373298679
9400000000.0 0.5486996769905025 0.7843275070190475
9500000000.0 0.8733410239219642 0.1985446959733961
9600000000.0 0.71300041675568 -0.49546653032302795
9700000000.0 0.11039998382330612 -0.9019078016281129
9800000000.0 -0.585423827171362 -0.7863392233848291
9900000000.0 -0.9755812883377489 -0.28083476424219367
10000000000.0 -0.9523144960403506 0.24352458119391523
