! Created with skrf 1.12.0 (http://scikit-rf.org).
# Hz S RI R 50.0 
!freq ReS11 ImS11
!
1000000.0 0.999648 -0.006272
2000000.0 0.999478 -0.012297
3000000.0 0.999364 -0.018203
4000000.0 0.999267 -0.024054
5000000.0 0.999122 -0.030091
6000000.0 0.998882 -0.035922
7000000.0 0.998571 -0.041879
8000000.0 0.998373 -0.047847
9000000.0 0.997959 -0.053751
10000000.0 0.99768 -0.059715
11000000.0 0.997378 -0.065587
12000000.0 0.996808 -0.071543
13000000.0 0.996278 -0.077508
14000000.0 0.995958 -0.083282
15000000.0 0.995363 -0.089159
16000000.0 0.994884 -0.095143
17000000.0 0.994226 -0.100761
18000000.0 0.993673 -0.106827
19000000.0 0.992976 -0.112609
20000000.0 0.992305 -0.118472
21000000.0 0.991471 -0.124347
22000000.0 0.990739 -0.130269
23000000.0 0.989979 -0.13596
24000000.0 0.989084 -0.141811
25000000.0 0.988188 -0.147713
26000000.0 0.9874 -0.153356
27000000.0 0.98637 -0.159386
28000000.0 0.985403 -0.164962
29000000.0 0.984357 -0.170827
30000000.0 0.983249 -0.17667
31000000.0 0.982204 -0.182119
32000000.0 0.981045 -0.187887
33000000.0 0.98006 -0.193833
34000000.0 0.978792 -0.199446
35000000.0 0.977546 -0.205226
36000000.0 0.976276 -0.210964
37000000.0 0.975023 -0.21658
38000000.0 0.973829 -0.222213
39000000.0 0.972212 -0.227778
40000000.0 0.971052 -0.233486
41000000.0 0.96964 -0.239044
42000000.0 0.968134 -0.244603
43000000.0 0.966693 -0.250139
44000000.0 0.965287 -0.255732
45000000.0 0.963593 -0.261358
46000000.0 0.962151 -0.266944
47000000.0 0.960509 -0.272477
48000000.0 0.958964 -0.277989
49000000.0 0.957126 -0.283406
50000000.0 0.955637 -0.288805
51000000.0 0.953916 -0.294297
52000000.0 0.952044 -0.299797
53000000.0 0.950289 -0.305074
54000000.0 0.948553 -0.310551
55000000.0 0.946477 -0.315958
56000000.0 0.944691 -0.321243
57000000.0 0.942864 -0.326619
58000000.0 0.940928 -0.331985
59000000.0 0.938847 -0.337398
60000000.0 0.936917 -0.34254
61000000.0 0.935013 -0.347958
62000000.0 0.932846 -0.353126
63000000.0 0.93077 -0.358363
64000000.0 0.928742 -0.363611
65000000.0 0.926555 -0.36878
66000000.0 0.924371 -0.374041
67000000.0 0.922145 -0.379132
68000000.0 0.919911 -0.384231
69000000.0 0.917677 -0.389332
70000000.0 0.91536 -0.394246
71000000.0 0.913196 -0.399373
72000000.0 0.910842 -0.404444
73000000.0 0.908623 -0.409467
74000000.0 0.906143 -0.414458
75000000.0 0.903639 -0.419368
76000000.0 0.90128 -0.424489
77000000.0 0.898759 -0.429497
78000000.0 0.896276 -0.434133
79000000.0 0.893809 -0.439122
80000000.0 0.891072 -0.44395
81000000.0 0.888468 -0.448768
82000000.0 0.885934 -0.4536
83000000.0 0.883346 -0.458473
84000000.0 0.880607 -0.463258
85000000.0 0.877905 -0.467982
86000000.0 0.875169 -0.472637
87000000.0 0.872481 -0.477476
88000000.0 0.869642 -0.4821
89000000.0 0.866942 -0.486831
90000000.0 0.863953 -0.491511
91000000.0 0.861232 -0.49601
92000000.0 0.858418 -0.500532
93000000.0 0.855621 -0.50516
94000000.0 0.852796 -0.509671
95000000.0 0.8497 -0.514298
96000000.0 0.846852 -0.518645
97000000.0 0.843809 -0.523199
98000000.0 0.840944 -0.527665
99000000.0 0.837823 -0.531977
100000000.0 0.834901 -0.536367
101000000.0 0.831904 -0.540701
102000000.0 0.828845 -0.54522
103000000.0 0.825722 -0.549366
104000000.0 0.822677 -0.553808
105000000.0 0.819422 -0.557885
106000000.0 0.816237 -0.56226
107000000.0 0.813105 -0.56637
108000000.0 0.809958 -0.570587
109000000.0 0.806695 -0.574644
110000000.0 0.803501 -0.578798
111000000.0 0.800292 -0.582705
112000000.0 0.797092 -0.58681
113000000.0 0.793737 -0.590925
114000000.0 0.790298 -0.594837
115000000.0 0.787132 -0.598805
116000000.0 0.783825 -0.602662
117000000.0 0.780495 -0.606482
118000000.0 0.777041 -0.610696
119000000.0 0.773717 -0.614515
120000000.0 0.770277 -0.618254
121000000.0 0.766843 -0.62211
122000000.0 0.763393 -0.625969
123000000.0 0.759861 -0.629618
124000000.0 0.756525 -0.63324
125000000.0 0.752937 -0.637081
126000000.0 0.74941 -0.640756
127000000.0 0.745998 -0.644459
128000000.0 0.74243 -0.648087
129000000.0 0.738735 -0.651749
130000000.0 0.735283 -0.655118
131000000.0 0.731588 -0.658679
132000000.0 0.728083 -0.66228
133000000.0 0.724442 -0.665971
134000000.0 0.720796 -0.669133
135000000.0 0.717219 -0.672753
136000000.0 0.713543 -0.676166
137000000.0 0.709853 -0.679551
138000000.0 0.70608 -0.682812
139000000.0 0.702358 -0.686226
140000000.0 0.69866 -0.689485
141000000.0 0.695048 -0.692796
142000000.0 0.691294 -0.695999
143000000.0 0.687418 -0.699239
144000000.0 0.683689 -0.702521
145000000.0 0.680036 -0.70573
146000000.0 0.67621 -0.708779
147000000.0 0.672191 -0.711985
148000000.0 0.668517 -0.714914
149000000.0 0.664596 -0.718079
150000000.0 0.660856 -0.721176
151000000.0 0.657022 -0.724193
152000000.0 0.652934 -0.727313
153000000.0 0.649226 -0.730212
154000000.0 0.645225 -0.733167
155000000.0 0.64126 -0.735977
156000000.0 0.637509 -0.738793
157000000.0 0.633614 -0.741697
158000000.0 0.629623 -0.744511
159000000.0 0.625607 -0.747444
160000000.0 0.62172 -0.750198
161000000.0 0.61751 -0.752954
162000000.0 0.613749 -0.755618
163000000.0 0.609837 -0.758419
164000000.0 0.605911 -0.761187
165000000.0 0.602 -0.763792
166000000.0 0.598026 -0.766582
167000000.0 0.594096 -0.769174
168000000.0 0.590209 -0.771867
169000000.0 0.586211 -0.774432
170000000.0 0.582051 -0.777049
171000000.0 0.578239 -0.779493
172000000.0 0.574087 -0.782005
173000000.0 0.570053 -0.784432
174000000.0 0.56606 -0.787033
175000000.0 0.562062 -0.789398
176000000.0 0.558006 -0.792005
177000000.0 0.55397 -0.794276
178000000.0 0.549851 -0.796603
179000000.0 0.545806 -0.798916
180000000.0 0.541749 -0.801399
181000000.0 0.537718 -0.803616
182000000.0 0.533555 -0.805949
183000000.0 0.529509 -0.80817
184000000.0 0.525321 -0.810288
185000000.0 0.521189 -0.812633
186000000.0 0.517107 -0.814855
187000000.0 0.513001 -0.816954
188000000.0 0.508862 -0.819094
189000000.0 0.504714 -0.821173
190000000.0 0.500568 -0.823391
191000000.0 0.496558 -0.825462
192000000.0 0.49241 -0.827528
193000000.0 0.488307 -0.829635
194000000.0 0.48426400000000003 -0.831636
195000000.0 0.480159 -0.833547
196000000.0 0.475993 -0.835667
197000000.0 0.471892 -0.837653
198000000.0 0.467633 -0.839587
199000000.0 0.463653 -0.841603
200000000.0 0.459586 -0.843502
201000000.0 0.455473 -0.845414
202000000.0 0.451274 -0.847322
203000000.0 0.447226 -0.849189
204000000.0 0.443062 -0.850878
205000000.0 0.438925 -0.852789
206000000.0 0.434876 -0.854628
207000000.0 0.430715 -0.856443
208000000.0 0.426689 -0.858123
209000000.0 0.422471 -0.859919
210000000.0 0.41825 -0.861619
211000000.0 0.414072 -0.863385
212000000.0 0.41013 -0.865096
213000000.0 0.406073 -0.866773
214000000.0 0.401948 -0.868431
215000000.0 0.397817 -0.870169
216000000.0 0.3936 -0.871615
217000000.0 0.389549 -0.873247
218000000.0 0.385386 -0.87481
219000000.0 0.381192 -0.876552
220000000.0 0.37707 -0.878102
221000000.0 0.373152 -0.879725
222000000.0 0.36893 -0.88114
223000000.0 0.364923 -0.882653
224000000.0 0.360709 -0.88417
225000000.0 0.356552 -0.885692
226000000.0 0.352546 -0.887174
227000000.0 0.348432 -0.88857
228000000.0 0.344457 -0.88983
229000000.0 0.340416 -0.891295
230000000.0 0.336266 -0.892749
231000000.0 0.332201 -0.894252
232000000.0 0.328195 -0.895427
233000000.0 0.32423 -0.896754
234000000.0 0.320105 -0.898238
235000000.0 0.316113 -0.899468
236000000.0 0.311944 -0.9006
237000000.0 0.307982 -0.9021
238000000.0 0.303938 -0.903266
239000000.0 0.299894 -0.904462
240000000.0 0.295883 -0.905738
241000000.0 0.291842 -0.906829
242000000.0 0.287795 -0.908075
243000000.0 0.283794 -0.909195
244000000.0 0.27994 -0.910263
245000000.0 0.275938 -0.911492
246000000.0 0.272078 -0.912493
247000000.0 0.267927 -0.913764
248000000.0 0.263978 -0.91478
249000000.0 0.259982 -0.915818
250000000.0 0.25604 -0.916804
251000000.0 0.252101 -0.9179
252000000.0 0.24809 -0.918916
253000000.0 0.244165 -0.919936
254000000.0 0.240226 -0.920906
255000000.0 0.236328 -0.921869
256000000.0 0.232404 -0.922713
257000000.0 0.22856 -0.923774
258000000.0 0.22467 -0.924743
259000000.0 0.220792 -0.925644
260000000.0 0.216979 -0.926592
261000000.0 0.213091 -0.927548
262000000.0 0.209118 -0.928412
263000000.0 0.205226 -0.929239
264000000.0 0.201588 -0.930113
265000000.0 0.197635 -0.930959
266000000.0 0.193841 -0.931759
267000000.0 0.189984 -0.932673
268000000.0 0.18612 -0.93341
269000000.0 0.182317 -0.934253
270000000.0 0.178619 -0.935015
271000000.0 0.174854 -0.935733
272000000.0 0.171024 -0.936448
273000000.0 0.167416 -0.937222
274000000.0 0.163456 -0.937934
275000000.0 0.159688 -0.93851
276000000.0 0.156097 -0.939399
277000000.0 0.152377 -0.939963
278000000.0 0.148551 -0.940705
279000000.0 0.144903 -0.941347
280000000.0 0.141295 -0.941918
281000000.0 0.137635 -0.942555
282000000.0 0.133844 -0.943214
283000000.0 0.130149 -0.943768
284000000.0 0.126462 -0.944366
285000000.0 0.122921 -0.945052
286000000.0 0.119171 -0.945538
287000000.0 0.115641 -0.946117
288000000.0 0.111968 -0.946771
289000000.0 0.108349 -0.9473
290000000.0 0.104745 -0.947829
291000000.0 0.101198 -0.94827
292000000.0 0.097637 -0.948891
293000000.0 0.093926 -0.949394
294000000.0 0.090466 -0.949869
295000000.0 0.086786 -0.950382
296000000.0 0.083227 -0.950852
297000000.0 0.079756 -0.951308
298000000.0 0.076164 -0.951815
299000000.0 0.072649 -0.952205
300000000.0 0.069029 -0.952543
301000000.0 0.065648 -0.953023
302000000.0 0.062091 -0.953354
303000000.0 0.058776 -0.953843
304000000.0 0.05519 -0.954173
305000000.0 0.051805 -0.954627
306000000.0 0.048305 -0.954783
307000000.0 0.044749 -0.955187
308000000.0 0.041504 -0.955662
309000000.0 0.037943 -0.955949
310000000.0 0.034613 -0.956114
311000000.0 0.031145 -0.956517
312000000.0 0.027853 -0.956847
313000000.0 0.024393 -0.957016
314000000.0 0.021084 -0.95729
315000000.0 0.017777 -0.957576
316000000.0 0.014358 -0.957824
317000000.0 0.01101 -0.957997
318000000.0 0.007553 -0.958215
319000000.0 0.004306 -0.958381
320000000.0 0.001038 -0.958638
321000000.0 -0.00226 -0.958822
322000000.0 -0.005465 -0.958809
323000000.0 -0.008766 -0.958978
324000000.0 -0.012007 -0.959075
325000000.0 -0.015398 -0.959195
326000000.0 -0.018659 -0.959289
327000000.0 -0.021857 -0.959307
328000000.0 -0.025247 -0.959379
329000000.0 -0.028459 -0.959368
330000000.0 -0.031602 -0.9593
331000000.0 -0.034854 -0.959402
332000000.0 -0.038128 -0.959384
333000000.0 -0.041338 -0.959518
334000000.0 -0.044468 -0.959361
335000000.0 -0.047562 -0.959394
336000000.0 -0.050829 -0.959318
337000000.0 -0.054077 -0.959176
338000000.0 -0.057235 -0.959131
339000000.0 -0.06053 -0.959136
340000000.0 -0.063587 -0.958855
341000000.0 -0.066765 -0.958914
342000000.0 -0.069966 -0.958731
343000000.0 -0.073136 -0.958625
344000000.0 -0.076096 -0.958462
345000000.0 -0.079272 -0.958372
346000000.0 -0.082269 -0.958131
347000000.0 -0.085462 -0.957964
348000000.0 -0.088425 -0.957884
349000000.0 -0.091629 -0.95758
350000000.0 -0.094727 -0.95737
351000000.0 -0.097927 -0.957119
352000000.0 -0.101005 -0.956866
353000000.0 -0.104191 -0.95655
354000000.0 -0.107299 -0.95617
355000000.0 -0.110532 -0.955741
356000000.0 -0.113717 -0.955455
357000000.0 -0.116774 -0.954938
358000000.0 -0.119867 -0.954473
359000000.0 -0.123253 -0.954002
360000000.0 -0.126308 -0.95337
361000000.0 -0.129522 -0.952739
362000000.0 -0.132677 -0.951965
363000000.0 -0.135767 -0.951151
364000000.0 -0.13891 -0.950214
365000000.0 -0.14188 -0.949357
366000000.0 -0.144969 -0.948521
367000000.0 -0.147891 -0.947382
368000000.0 -0.150632 -0.946271
369000000.0 -0.153457 -0.945323
370000000.0 -0.156124 -0.944523
371000000.0 -0.158901 -0.943751
372000000.0 -0.161922 -0.942791
373000000.0 -0.164993 -0.941918
374000000.0 -0.168216 -0.940769
375000000.0 -0.171399 -0.939504
376000000.0 -0.174658 -0.937938
377000000.0 -0.177688 -0.936192
378000000.0 -0.180722 -0.934355
379000000.0 -0.183582 -0.932231
380000000.0 -0.186438 -0.929964
381000000.0 -0.189069 -0.927463
382000000.0 -0.191148 -0.924632
383000000.0 -0.193011 -0.921878
384000000.0 -0.194367 -0.919088
385000000.0 -0.195482 -0.916289
386000000.0 -0.19624 -0.91357
387000000.0 -0.196593 -0.910933
388000000.0 -0.196502 -0.908779
389000000.0 -0.195962 -0.906788
390000000.0 -0.195442 -0.905541
391000000.0 -0.194927 -0.904806
392000000.0 -0.194406 -0.904563
393000000.0 -0.19439 -0.904765
394000000.0 -0.19466 -0.905337
395000000.0 -0.195374 -0.905782
396000000.0 -0.196426 -0.906192
397000000.0 -0.197807 -0.906401
398000000.0 -0.199221 -0.906519
399000000.0 -0.200536 -0.906274
400000000.0 -0.201808 -0.90579
401000000.0 -0.202761 -0.905506
402000000.0 -0.20353 -0.905129
403000000.0 -0.204105 -0.90509
404000000.0 -0.204468 -0.905226
405000000.0 -0.204966 -0.906115
406000000.0 -0.205906 -0.907119
407000000.0 -0.207109 -0.908592
408000000.0 -0.208968 -0.910048
409000000.0 -0.211196 -0.911592
410000000.0 -0.213986 -0.912791
411000000.0 -0.217125 -0.91376
412000000.0 -0.220621 -0.914015
413000000.0 -0.224136 -0.914105
414000000.0 -0.227898 -0.913599
415000000.0 -0.231383 -0.912439
416000000.0 -0.234639 -0.910811
417000000.0 -0.237709 -0.908602
418000000.0 -0.240156 -0.905899
419000000.0 -0.241444 -0.90306
420000000.0 -0.24185 -0.900307
421000000.0 -0.241337 -0.898389
422000000.0 -0.240337 -0.897613
423000000.0 -0.239425 -0.89805
424000000.0 -0.239195 -0.899347
425000000.0 -0.239909 -0.90119
426000000.0 -0.24132 -0.903093
427000000.0 -0.243674 -0.904662
428000000.0 -0.246254 -0.905887
429000000.0 -0.249059 -0.906753
430000000.0 -0.252227 -0.907218
431000000.0 -0.255326 -0.90747
432000000.0 -0.258366 -0.907454
433000000.0 -0.261672 -0.907114
434000000.0 -0.264809 -0.906447
435000000.0 -0.267837 -0.905801
436000000.0 -0.270944 -0.904898
437000000.0 -0.273981 -0.903774
438000000.0 -0.276958 -0.902281
439000000.0 -0.279747 -0.900677
440000000.0 -0.282274 -0.898817
441000000.0 -0.284478 -0.896726
442000000.0 -0.286302 -0.894292
443000000.0 -0.287628 -0.891971
444000000.0 -0.288119 -0.88981
445000000.0 -0.288235 -0.888304
446000000.0 -0.288043 -0.887375
447000000.0 -0.287723 -0.887447
448000000.0 -0.288031 -0.887945
449000000.0 -0.289031 -0.88885
450000000.0 -0.290515 -0.890027
451000000.0 -0.292579 -0.890925
452000000.0 -0.294888 -0.89165
453000000.0 -0.297433 -0.892154
454000000.0 -0.300286 -0.892378
455000000.0 -0.303161 -0.8923
456000000.0 -0.305929 -0.89183
457000000.0 -0.308761 -0.891623
458000000.0 -0.311598 -0.890964
459000000.0 -0.314395 -0.890151
460000000.0 -0.316948 -0.889404
461000000.0 -0.319482 -0.8884
462000000.0 -0.32175 -0.887533
463000000.0 -0.324149 -0.886692
464000000.0 -0.326412 -0.886094
465000000.0 -0.328999 -0.885404
466000000.0 -0.331628 -0.884769
467000000.0 -0.334377 -0.884002
468000000.0 -0.337038 -0.882875
469000000.0 -0.33976 -0.881735
470000000.0 -0.342441 -0.880534
471000000.0 -0.345188 -0.879145
472000000.0 -0.347617 -0.877757
473000000.0 -0.350033 -0.876324
474000000.0 -0.352278 -0.87489
475000000.0 -0.354358 -0.873487
476000000.0 -0.356693 -0.872351
477000000.0 -0.358871 -0.871369
478000000.0 -0.361424 -0.870264
479000000.0 -0.363975 -0.869025
480000000.0 -0.366731 -0.867896
481000000.0 -0.369477 -0.86655
482000000.0 -0.372331 -0.865021
483000000.0 -0.375127 -0.863478
484000000.0 -0.377788 -0.861759
485000000.0 -0.380643 -0.859956
486000000.0 -0.383349 -0.858024
487000000.0 -0.386137 -0.856125
488000000.0 -0.388856 -0.853924
489000000.0 -0.391435 -0.851677
490000000.0 -0.394191 -0.849376
491000000.0 -0.396843 -0.846951
492000000.0 -0.399555 -0.844311
493000000.0 -0.402121 -0.841637
494000000.0 -0.404732 -0.838814
495000000.0 -0.407256 -0.835707
496000000.0 -0.409536 -0.832329
497000000.0 -0.411882 -0.828776
498000000.0 -0.413805 -0.825039
499000000.0 -0.415671 -0.821112
500000000.0 -0.417153 -0.816849
501000000.0 -0.418346 -0.812384
502000000.0 -0.419115 -0.807883
503000000.0 -0.419313 -0.80321
504000000.0 -0.418883 -0.798363
505000000.0 -0.417871 -0.793631
506000000.0 -0.416074 -0.78923
507000000.0 -0.413361 -0.78508
508000000.0 -0.410022 -0.782007
509000000.0 -0.406358 -0.779853
510000000.0 -0.402511 -0.778944
511000000.0 -0.399382 -0.778841
512000000.0 -0.396766 -0.779651
513000000.0 -0.394927 -0.780548
514000000.0 -0.393828 -0.781514
515000000.0 -0.392995 -0.782175
516000000.0 -0.39213 -0.782664
517000000.0 -0.391074 -0.783231
518000000.0 -0.389916 -0.784183
519000000.0 -0.388612 -0.785634
520000000.0 -0.387732 -0.787707
521000000.0 -0.387421 -0.79044
522000000.0 -0.387977 -0.793088
523000000.0 -0.389283 -0.795976
524000000.0 -0.391433 -0.798336
525000000.0 -0.394079 -0.800145
526000000.0 -0.396958 -0.801204
527000000.0 -0.399838 -0.801874
528000000.0 -0.402421 -0.801979
529000000.0 -0.404727 -0.801809
530000000.0 -0.406899 -0.801515
531000000.0 -0.408553 -0.80123
532000000.0 -0.410256 -0.801171
533000000.0 -0.411689 -0.801082
534000000.0 -0.413389 -0.801177
535000000.0 -0.414868 -0.801254
536000000.0 -0.416452 -0.801432
537000000.0 -0.418121 -0.801688
538000000.0 -0.419653 -0.802105
539000000.0 -0.421325 -0.802711
540000000.0 -0.423168 -0.803352
541000000.0 -0.425369 -0.804097
542000000.0 -0.427722 -0.804952
543000000.0 -0.430329 -0.805518
544000000.0 -0.433204 -0.806067
545000000.0 -0.436117 -0.806432
546000000.0 -0.439311 -0.806521
547000000.0 -0.442555 -0.806587
548000000.0 -0.445785 -0.806343
549000000.0 -0.449107 -0.805886
550000000.0 -0.452426 -0.805134
551000000.0 -0.455631 -0.804475
552000000.0 -0.458923 -0.803549
553000000.0 -0.462079 -0.802492
554000000.0 -0.465106 -0.80125
555000000.0 -0.468144 -0.800012
556000000.0 -0.471054 -0.798528
557000000.0 -0.474038 -0.797104
558000000.0 -0.476969 -0.795469
559000000.0 -0.479701 -0.793842
560000000.0 -0.482383 -0.792063
561000000.0 -0.485078 -0.790305
562000000.0 -0.487712 -0.788208
563000000.0 -0.490133 -0.786218
564000000.0 -0.492431 -0.784317
565000000.0 -0.494788 -0.782027
566000000.0 -0.497023 -0.780004
567000000.0 -0.498999 -0.777698
568000000.0 -0.501039 -0.775399
569000000.0 -0.502851 -0.773234
570000000.0 -0.504504 -0.770829
571000000.0 -0.506037 -0.768559
572000000.0 -0.507542 -0.766309
573000000.0 -0.50897 -0.764084
574000000.0 -0.510219 -0.761813
575000000.0 -0.51141 -0.759587
576000000.0 -0.512599 -0.757364
577000000.0 -0.513572 -0.755134
578000000.0 -0.514505 -0.752973
579000000.0 -0.515393 -0.75077
580000000.0 -0.516006 -0.748644
581000000.0 -0.51671 -0.746529
582000000.0 -0.517117 -0.744486
583000000.0 -0.517655 -0.742535
584000000.0 -0.517789 -0.740416
585000000.0 -0.517898 -0.73863
586000000.0 -0.517799 -0.736907
587000000.0 -0.517569 -0.735476
588000000.0 -0.517513 -0.734283
589000000.0 -0.517637 -0.733201
590000000.0 -0.51763 -0.732257
591000000.0 -0.517881 -0.731346
592000000.0 -0.518273 -0.730343
593000000.0 -0.51859 -0.729201
594000000.0 -0.518931 -0.727894
595000000.0 -0.519049 -0.726741
596000000.0 -0.51905 -0.725329
597000000.0 -0.518719 -0.724084
598000000.0 -0.518244 -0.722859
599000000.0 -0.517645 -0.722062
600000000.0 -0.516686 -0.721494
601000000.0 -0.515815 -0.721161
602000000.0 -0.514901 -0.721273
603000000.0 -0.514173 -0.721774
604000000.0 -0.513618 -0.722505
605000000.0 -0.513505 -0.723408
606000000.0 -0.513662 -0.724346
607000000.0 -0.514162 -0.725312
608000000.0 -0.514855 -0.726227
609000000.0 -0.515753 -0.727022
610000000.0 -0.516664 -0.727397
611000000.0 -0.517687 -0.727995
612000000.0 -0.518609 -0.728254
613000000.0 -0.519362 -0.72858
614000000.0 -0.520079 -0.729032
615000000.0 -0.520651 -0.729433
616000000.0 -0.521289 -0.73029
617000000.0 -0.52202 -0.731311
618000000.0 -0.522974 -0.732455
619000000.0 -0.524214 -0.733816
620000000.0 -0.52564 -0.735185
621000000.0 -0.527513 -0.736467
622000000.0 -0.529657 -0.737676
623000000.0 -0.532095 -0.738707
624000000.0 -0.534702 -0.739514
625000000.0 -0.537391 -0.740026
626000000.0 -0.540139 -0.740327
627000000.0 -0.542924 -0.740404
628000000.0 -0.5459 -0.740142
629000000.0 -0.5486 -0.739718
630000000.0 -0.551465 -0.738991
631000000.0 -0.554092 -0.738371
632000000.0 -0.556792 -0.737442
633000000.0 -0.559325 -0.736416
634000000.0 -0.561715 -0.735101
635000000.0 -0.563996 -0.73389
636000000.0 -0.566302 -0.732493
637000000.0 -0.568391 -0.730942
638000000.0 -0.57047 -0.729393
639000000.0 -0.572348 -0.727571
640000000.0 -0.574159 -0.725735
641000000.0 -0.575732 -0.723734
642000000.0 -0.577134 -0.721906
643000000.0 -0.578498 -0.719828
644000000.0 -0.579423 -0.717688
645000000.0 -0.580133 -0.715643
646000000.0 -0.580811 -0.713724
647000000.0 -0.58096 -0.711784
648000000.0 -0.581061 -0.710034
649000000.0 -0.580967 -0.708516
650000000.0 -0.580739 -0.707034
651000000.0 -0.580494 -0.705962
652000000.0 -0.580166 -0.705234
653000000.0 -0.579764 -0.704639
654000000.0 -0.579727 -0.70421
655000000.0 -0.579756 -0.704043
656000000.0 -0.579686 -0.704084
657000000.0 -0.580256 -0.704065
658000000.0 -0.580781 -0.704304
659000000.0 -0.581355 -0.704344
660000000.0 -0.582185 -0.704527
661000000.0 -0.583327 -0.704379
662000000.0 -0.584401 -0.704282
663000000.0 -0.585551 -0.704021
664000000.0 -0.586696 -0.703564
665000000.0 -0.588045 -0.703081
666000000.0 -0.58902 -0.702565
667000000.0 -0.590337 -0.70196
668000000.0 -0.591485 -0.701221
669000000.0 -0.59254 -0.700452
670000000.0 -0.593621 -0.699706
671000000.0 -0.594699 -0.698806
672000000.0 -0.595531 -0.698
673000000.0 -0.596449 -0.697134
674000000.0 -0.597331 -0.696119
675000000.0 -0.598144 -0.695222
676000000.0 -0.598789 -0.694246
677000000.0 -0.599579 -0.693402
678000000.0 -0.600143 -0.692535
679000000.0 -0.600819 -0.691667
680000000.0 -0.601295 -0.69079
681000000.0 -0.602004 -0.69005
682000000.0 -0.602699 -0.689349
683000000.0 -0.603467 -0.688603
684000000.0 -0.604152 -0.687767
685000000.0 -0.604902 -0.686914
686000000.0 -0.605807 -0.685811
687000000.0 -0.60673 -0.684876
688000000.0 -0.607403 -0.683694
689000000.0 -0.608092 -0.682388
690000000.0 -0.608699 -0.68097
691000000.0 -0.609241 -0.67962
692000000.0 -0.609516 -0.67813
693000000.0 -0.609689 -0.676571
694000000.0 -0.609535 -0.675136
695000000.0 -0.609491 -0.673631
696000000.0 -0.609124 -0.672277
697000000.0 -0.608722 -0.671099
698000000.0 -0.607908 -0.670063
699000000.0 -0.607169 -0.669172
700000000.0 -0.606423 -0.668541
701000000.0 -0.60557 -0.668023
702000000.0 -0.604824 -0.667774
703000000.0 -0.603912 -0.667734
704000000.0 -0.603419 -0.667844
705000000.0 -0.602943 -0.668058
706000000.0 -0.602661 -0.668342
707000000.0 -0.602459 -0.668711
708000000.0 -0.602596 -0.669102
709000000.0 -0.602554 -0.66937
710000000.0 -0.602905 -0.669656
711000000.0 -0.603117 -0.669845
712000000.0 -0.603419 -0.670057
713000000.0 -0.603764 -0.670326
714000000.0 -0.603991 -0.670442
715000000.0 -0.604291 -0.670647
716000000.0 -0.604691 -0.67113
717000000.0 -0.605209 -0.671302
718000000.0 -0.605798 -0.671694
719000000.0 -0.606445 -0.672101
720000000.0 -0.607338 -0.672623
721000000.0 -0.608136 -0.672987
722000000.0 -0.60919 -0.673428
723000000.0 -0.610354 -0.673622
724000000.0 -0.611779 -0.673891
725000000.0 -0.613087 -0.673958
726000000.0 -0.614718 -0.673753
727000000.0 -0.616248 -0.673558
728000000.0 -0.617807 -0.672967
729000000.0 -0.619263 -0.672466
730000000.0 -0.620822 -0.671811
731000000.0 -0.622086 -0.670928
732000000.0 -0.623603 -0.669932
733000000.0 -0.624933 -0.668853
734000000.0 -0.625987 -0.667743
735000000.0 -0.62717 -0.666463
736000000.0 -0.628171 -0.665181
737000000.0 -0.62902 -0.663652
738000000.0 -0.629901 -0.662422
739000000.0 -0.630596 -0.661014
740000000.0 -0.631222 -0.659763
741000000.0 -0.631776 -0.658338
742000000.0 -0.632205 -0.656859
743000000.0 -0.632552 -0.655531
744000000.0 -0.632811 -0.654293
745000000.0 -0.633141 -0.65299
746000000.0 -0.63325 -0.651678
747000000.0 -0.633488 -0.650454
748000000.0 -0.633589 -0.649194
749000000.0 -0.633609 -0.648073
750000000.0 -0.633565 -0.646887
751000000.0 -0.63344 -0.645637
752000000.0 -0.633139 -0.644504
753000000.0 -0.63293 -0.643582
754000000.0 -0.632616 -0.642436
755000000.0 -0.63215 -0.641742
756000000.0 -0.631837 -0.640958
757000000.0 -0.631416 -0.640425
758000000.0 -0.631071 -0.639945
759000000.0 -0.630659 -0.63951
760000000.0 -0.63052 -0.639396
761000000.0 -0.630282 -0.639143
762000000.0 -0.630192 -0.639
763000000.0 -0.63012 -0.639041
764000000.0 -0.630345 -0.639074
765000000.0 -0.630635 -0.639054
766000000.0 -0.630952 -0.639139
767000000.0 -0.631407 -0.639011
768000000.0 -0.632024 -0.638863
769000000.0 -0.632568 -0.638728
770000000.0 -0.633327 -0.638517
771000000.0 -0.633966 -0.638236
772000000.0 -0.634656 -0.63783
773000000.0 -0.635463 -0.637541
774000000.0 -0.636195 -0.637125
775000000.0 -0.636911 -0.636581
776000000.0 -0.637604 -0.636108
777000000.0 -0.638497 -0.635638
778000000.0 -0.639222 -0.635125
779000000.0 -0.639913 -0.634528
780000000.0 -0.640572 -0.634098
781000000.0 -0.641466 -0.633614
782000000.0 -0.64221 -0.632999
783000000.0 -0.643198 -0.632343
784000000.0 -0.644075 -0.631783
785000000.0 -0.644947 -0.631216
786000000.0 -0.645937 -0.63055
787000000.0 -0.64696 -0.629905
788000000.0 -0.648084 -0.629089
789000000.0 -0.649058 -0.628281
790000000.0 -0.650222 -0.62754
791000000.0 -0.651288 -0.626599
792000000.0 -0.652519 -0.625649
793000000.0 -0.653535 -0.624673
794000000.0 -0.654659 -0.623575
795000000.0 -0.655844 -0.622382
796000000.0 -0.656832 -0.621162
797000000.0 -0.658002 -0.6199
798000000.0 -0.659144 -0.61839
799000000.0 -0.6602 -0.617013
800000000.0 -0.661299 -0.615495
801000000.0 -0.662048 -0.61404
802000000.0 -0.663023 -0.612297
803000000.0 -0.663834 -0.610607
804000000.0 -0.6646 -0.608866
805000000.0 -0.665292 -0.607101
806000000.0 -0.665813 -0.605244
807000000.0 -0.666476 -0.603417
808000000.0 -0.66682 -0.60155
809000000.0 -0.667162 -0.599603
810000000.0 -0.667499 -0.597731
811000000.0 -0.66775 -0.595944
812000000.0 -0.667878 -0.594083
813000000.0 -0.667864 -0.592372
814000000.0 -0.667848 -0.59057
815000000.0 -0.667708 -0.588708
816000000.0 -0.667554 -0.587039
817000000.0 -0.667343 -0.585436
818000000.0 -0.667142 -0.583786
819000000.0 -0.666865 -0.582308
820000000.0 -0.66657 -0.580884
821000000.0 -0.666295 -0.579527
822000000.0 -0.665996 -0.578159
823000000.0 -0.665728 -0.576888
824000000.0 -0.665308 -0.57553
825000000.0 -0.665184 -0.574356
826000000.0 -0.664797 -0.573275
827000000.0 -0.664545 -0.572093
828000000.0 -0.664289 -0.570935
829000000.0 -0.663987 -0.569757
830000000.0 -0.663744 -0.568676
831000000.0 -0.66348 -0.567488
832000000.0 -0.663198 -0.566488
833000000.0 -0.66283 -0.565489
834000000.0 -0.662503 -0.564437
835000000.0 -0.662138 -0.563337
836000000.0 -0.661779 -0.562276
837000000.0 -0.661417 -0.561516
838000000.0 -0.66095 -0.560543
839000000.0 -0.66052 -0.559761
840000000.0 -0.66014 -0.559005
841000000.0 -0.659743 -0.558282
842000000.0 -0.659267 -0.557582
843000000.0 -0.658807 -0.557096
844000000.0 -0.65853 -0.556616
845000000.0 -0.658166 -0.556137
846000000.0 -0.658083 -0.555733
847000000.0 -0.657784 -0.555539
848000000.0 -0.657574 -0.555207
849000000.0 -0.65759 -0.554988
850000000.0 -0.657535 -0.55466
851000000.0 -0.657781 -0.554477
852000000.0 -0.657929 -0.554241
853000000.0 -0.658279 -0.553963
854000000.0 -0.65853 -0.553675
855000000.0 -0.658995 -0.55339
856000000.0 -0.659319 -0.552946
857000000.0 -0.65979 -0.552483
858000000.0 -0.660391 -0.552089
859000000.0 -0.660713 -0.551439
860000000.0 -0.661205 -0.550979
861000000.0 -0.661677 -0.550304
862000000.0 -0.662173 -0.549597
863000000.0 -0.662527 -0.548862
864000000.0 -0.663026 -0.548131
865000000.0 -0.663378 -0.54738
866000000.0 -0.663666 -0.546473
867000000.0 -0.663978 -0.545852
868000000.0 -0.664291 -0.545103
869000000.0 -0.664562 -0.544303
870000000.0 -0.664844 -0.543579
871000000.0 -0.665015 -0.542763
872000000.0 -0.665416 -0.542149
873000000.0 -0.665576 -0.541312
874000000.0 -0.665689 -0.540649
875000000.0 -0.665903 -0.539976
876000000.0 -0.666289 -0.539466
877000000.0 -0.666281 -0.53863
878000000.0 -0.666636 -0.538253
879000000.0 -0.666873 -0.537588
880000000.0 -0.667075 -0.537079
881000000.0 -0.667262 -0.536444
882000000.0 -0.667517 -0.535931
883000000.0 -0.667773 -0.535353
884000000.0 -0.667995 -0.534691
885000000.0 -0.668294 -0.534154
886000000.0 -0.66863 -0.533778
887000000.0 -0.669031 -0.533295
888000000.0 -0.669218 -0.532834
889000000.0 -0.669543 -0.532519
890000000.0 -0.669929 -0.532113
891000000.0 -0.670373 -0.53153
892000000.0 -0.670859 -0.531034
893000000.0 -0.671204 -0.530617
894000000.0 -0.671604 -0.530155
895000000.0 -0.672157 -0.529727
896000000.0 -0.672635 -0.52916
897000000.0 -0.673103 -0.528722
898000000.0 -0.673678 -0.528213
899000000.0 -0.674266 -0.52766
900000000.0 -0.674788 -0.527052
901000000.0 -0.675383 -0.526573
902000000.0 -0.675966 -0.52578
903000000.0 -0.676522 -0.525228
904000000.0 -0.677129 -0.524396
905000000.0 -0.677663 -0.523679
906000000.0 -0.678167 -0.522948
907000000.0 -0.678662 -0.522147
908000000.0 -0.67905 -0.521257
909000000.0 -0.679525 -0.52048
910000000.0 -0.679963 -0.519391
911000000.0 -0.680347 -0.518525
912000000.0 -0.680503 -0.517731
913000000.0 -0.680904 -0.516737
914000000.0 -0.680897 -0.515922
915000000.0 -0.681035 -0.514931
916000000.0 -0.681115 -0.514114
917000000.0 -0.681136 -0.513439
918000000.0 -0.681105 -0.512549
919000000.0 -0.681047 -0.511841
920000000.0 -0.680828 -0.511125
921000000.0 -0.680687 -0.510494
922000000.0 -0.680588 -0.510044
923000000.0 -0.680357 -0.509562
924000000.0 -0.680112 -0.509108
925000000.0 -0.679951 -0.508843
926000000.0 -0.679773 -0.508534
927000000.0 -0.679601 -0.508348
928000000.0 -0.679504 -0.508169
929000000.0 -0.679316 -0.508175
930000000.0 -0.679328 -0.50809
931000000.0 -0.679201 -0.508253
932000000.0 -0.679099 -0.508264
933000000.0 -0.679195 -0.508452
934000000.0 -0.679298 -0.508505
935000000.0 -0.679446 -0.508773
936000000.0 -0.679728 -0.509087
937000000.0 -0.679985 -0.509355
938000000.0 -0.680347 -0.509643
939000000.0 -0.680899 -0.509957
940000000.0 -0.681259 -0.510302
941000000.0 -0.681794 -0.510542
942000000.0 -0.682392 -0.510689
943000000.0 -0.683236 -0.510941
944000000.0 -0.683877 -0.511208
945000000.0 -0.684719 -0.51142
946000000.0 -0.685684 -0.51146
947000000.0 -0.686504 -0.511414
948000000.0 -0.687438 -0.511403
949000000.0 -0.688308 -0.511354
950000000.0 -0.689277 -0.511143
951000000.0 -0.690246 -0.51103
952000000.0 -0.691164 -0.51069
953000000.0 -0.692049 -0.510415
954000000.0 -0.692938 -0.510152
955000000.0 -0.693877 -0.509754
956000000.0 -0.694733 -0.50937
957000000.0 -0.695544 -0.508815
958000000.0 -0.696282 -0.508416
959000000.0 -0.697114 -0.507942
960000000.0 -0.697775 -0.507414
961000000.0 -0.698431 -0.506943
962000000.0 -0.699149 -0.506486
963000000.0 -0.699639 -0.505942
964000000.0 -0.700257 -0.50548
965000000.0 -0.700765 -0.50496
966000000.0 -0.701374 -0.504482
967000000.0 -0.701791 -0.504115
968000000.0 -0.702248 -0.503614
969000000.0 -0.702725 -0.503328
970000000.0 -0.703048 -0.502961
971000000.0 -0.703438 -0.502712
972000000.0 -0.703908 -0.502405
973000000.0 -0.704324 -0.502179
974000000.0 -0.704764 -0.501926
975000000.0 -0.705271 -0.501861
976000000.0 -0.705638 -0.501568
977000000.0 -0.706277 -0.501522
978000000.0 -0.706847 -0.501407
979000000.0 -0.707397 -0.501172
980000000.0 -0.708007 -0.501112
981000000.0 -0.708627 -0.500996
982000000.0 -0.709287 -0.500895
983000000.0 -0.710013 -0.50074
984000000.0 -0.710819 -0.500556
985000000.0 -0.711749 -0.500383
986000000.0 -0.712418 -0.500246
987000000.0 -0.713289 -0.499874
988000000.0 -0.714067 -0.49967
989000000.0 -0.715041 -0.499368
990000000.0 -0.71596 -0.499067
991000000.0 -0.716843 -0.49869
992000000.0 -0.717789 -0.498328
993000000.0 -0.718616 -0.497895
994000000.0 -0.719615 -0.497484
995000000.0 -0.720463 -0.497061
996000000.0 -0.72145 -0.496451
997000000.0 -0.722281 -0.495854
998000000.0 -0.723125 -0.495221
999000000.0 -0.723953 -0.494717
1000000000.0 -0.724893 -0.494001
1001000000.0 -0.725703 -0.493351
1002000000.0 -0.726488 -0.492787
1003000000.0 -0.727377 -0.491976
1004000000.0 -0.728136 -0.491201
1005000000.0 -0.728894 -0.490587
1006000000.0 -0.729569 -0.489714
1007000000.0 -0.730256 -0.488981
1008000000.0 -0.731019 -0.488168
1009000000.0 -0.731567 -0.487323
1010000000.0 -0.732202 -0.486438
1011000000.0 -0.732775 -0.485618
1012000000.0 -0.733349 -0.484787
1013000000.0 -0.733899 -0.483904
1014000000.0 -0.734429 -0.482983
1015000000.0 -0.734959 -0.482144
1016000000.0 -0.735464 -0.481219
1017000000.0 -0.735925 -0.480383
1018000000.0 -0.736346 -0.479443
1019000000.0 -0.736751 -0.478502
1020000000.0 -0.737073 -0.477658
1021000000.0 -0.737474 -0.476818
1022000000.0 -0.737852 -0.475937
1023000000.0 -0.738163 -0.475051
1024000000.0 -0.73835 -0.474179
1025000000.0 -0.738799 -0.473404
1026000000.0 -0.739031 -0.472477
1027000000.0 -0.739246 -0.47149
1028000000.0 -0.739442 -0.47062
1029000000.0 -0.739595 -0.469873
1030000000.0 -0.739752 -0.469023
1031000000.0 -0.740039 -0.468162
1032000000.0 -0.740145 -0.467266
1033000000.0 -0.740311 -0.466489
1034000000.0 -0.740391 -0.465514
1035000000.0 -0.740539 -0.464743
1036000000.0 -0.740612 -0.463889
1037000000.0 -0.740715 -0.463067
1038000000.0 -0.740791 -0.462324
1039000000.0 -0.740822 -0.46152
1040000000.0 -0.740824 -0.460811
1041000000.0 -0.740737 -0.460049
1042000000.0 -0.740847 -0.459277
1043000000.0 -0.740873 -0.458598
1044000000.0 -0.740783 -0.457702
1045000000.0 -0.740693 -0.457136
1046000000.0 -0.740784 -0.456369
1047000000.0 -0.740681 -0.45577
1048000000.0 -0.740762 -0.455137
1049000000.0 -0.740716 -0.454559
1050000000.0 -0.740728 -0.453959
1051000000.0 -0.740717 -0.453227
1052000000.0 -0.740752 -0.452654
1053000000.0 -0.740783 -0.452054
1054000000.0 -0.740934 -0.451347
1055000000.0 -0.740884 -0.450675
1056000000.0 -0.740925 -0.450098
1057000000.0 -0.740987 -0.449573
1058000000.0 -0.741141 -0.448737
1059000000.0 -0.741244 -0.448109
1060000000.0 -0.741293 -0.447545
1061000000.0 -0.741457 -0.446806
1062000000.0 -0.741443 -0.446188
1063000000.0 -0.741521 -0.445456
1064000000.0 -0.74156 -0.444817
1065000000.0 -0.741681 -0.444096
1066000000.0 -0.741715 -0.443353
1067000000.0 -0.741788 -0.442618
1068000000.0 -0.741941 -0.441825
1069000000.0 -0.741937 -0.441331
1070000000.0 -0.742059 -0.44037
1071000000.0 -0.741884 -0.439639
1072000000.0 -0.74198 -0.438946
1073000000.0 -0.741984 -0.438226
1074000000.0 -0.741938 -0.43726
1075000000.0 -0.742008 -0.436576
1076000000.0 -0.741868 -0.43583
1077000000.0 -0.741848 -0.434996
1078000000.0 -0.741724 -0.434119
1079000000.0 -0.741618 -0.433536
1080000000.0 -0.741513 -0.432708
1081000000.0 -0.741303 -0.432006
1082000000.0 -0.741214 -0.431151
1083000000.0 -0.740989 -0.430445
1084000000.0 -0.740791 -0.429594
1085000000.0 -0.740735 -0.428808
1086000000.0 -0.74062 -0.428226
1087000000.0 -0.740323 -0.427508
1088000000.0 -0.740227 -0.4267
1089000000.0 -0.739854 -0.425928
1090000000.0 -0.739629 -0.425343
1091000000.0 -0.73938 -0.424629
1092000000.0 -0.739103 -0.424168
1093000000.0 -0.73891 -0.42347
1094000000.0 -0.738653 -0.422805
1095000000.0 -0.738525 -0.422212
1096000000.0 -0.738405 -0.421579
1097000000.0 -0.738 -0.420976
1098000000.0 -0.737789 -0.420546
1099000000.0 -0.737659 -0.419902
1100000000.0 -0.737511 -0.419315
1101000000.0 -0.737197 -0.418866
1102000000.0 -0.73706 -0.418302
1103000000.0 -0.736906 -0.417694
1104000000.0 -0.736583 -0.417228
1105000000.0 -0.736641 -0.416767
1106000000.0 -0.736317 -0.4162
1107000000.0 -0.736311 -0.41566
1108000000.0 -0.736177 -0.415074
1109000000.0 -0.736069 -0.414649
1110000000.0 -0.735958 -0.414197
1111000000.0 -0.735837 -0.413676
1112000000.0 -0.735666 -0.413132
1113000000.0 -0.735707 -0.412596
1114000000.0 -0.73551 -0.412061
1115000000.0 -0.735359 -0.411492
1116000000.0 -0.735175 -0.411001
1117000000.0 -0.735223 -0.410502
1118000000.0 -0.735017 -0.410133
1119000000.0 -0.735085 -0.40964
1120000000.0 -0.734807 -0.409076
1121000000.0 -0.734775 -0.408602
1122000000.0 -0.734699 -0.408056
1123000000.0 -0.734623 -0.40766
1124000000.0 -0.734503 -0.407224
1125000000.0 -0.734463 -0.40659
1126000000.0 -0.734423 -0.406305
1127000000.0 -0.734227 -0.405724
1128000000.0 -0.734297 -0.405302
1129000000.0 -0.73413 -0.404824
1130000000.0 -0.734281 -0.404266
1131000000.0 -0.734136 -0.40378000000000003
1132000000.0 -0.734136 -0.403318
1133000000.0 -0.734121 -0.402766
1134000000.0 -0.7342 -0.402383
1135000000.0 -0.73416 -0.401755
1136000000.0 -0.734039 -0.401338
1137000000.0 -0.734059 -0.400819
1138000000.0 -0.734185 -0.400232
1139000000.0 -0.734106 -0.399788
1140000000.0 -0.734038 -0.399338
1141000000.0 -0.734073 -0.398752
1142000000.0 -0.7342 -0.398213
1143000000.0 -0.734102 -0.39762
1144000000.0 -0.734161 -0.397132
1145000000.0 -0.73401 -0.396604
1146000000.0 -0.734016 -0.396018
1147000000.0 -0.734068 -0.395577
1148000000.0 -0.734076 -0.395026
1149000000.0 -0.733957 -0.394602
1150000000.0 -0.733991 -0.39408
1151000000.0 -0.733927 -0.393641
1152000000.0 -0.733903 -0.393187
1153000000.0 -0.734039 -0.39277
1154000000.0 -0.733897 -0.392205
1155000000.0 -0.733987 -0.391787
1156000000.0 -0.733918 -0.391281
1157000000.0 -0.733885 -0.390969
1158000000.0 -0.73394 -0.390522
1159000000.0 -0.733785 -0.390125
1160000000.0 -0.733912 -0.389658
1161000000.0 -0.733778 -0.389315
1162000000.0 -0.733853 -0.388928
1163000000.0 -0.733969 -0.388591
1164000000.0 -0.733906 -0.388214
1165000000.0 -0.733927 -0.38792
1166000000.0 -0.734081 -0.387512
1167000000.0 -0.73412 -0.387257
1168000000.0 -0.734167 -0.386989
1169000000.0 -0.734289 -0.38664
1170000000.0 -0.734327 -0.386247
1171000000.0 -0.734444 -0.385973
1172000000.0 -0.734533 -0.385717
1173000000.0 -0.734662 -0.385423
1174000000.0 -0.734867 -0.385118
1175000000.0 -0.735027 -0.384804
1176000000.0 -0.73528 -0.384509
1177000000.0 -0.735343 -0.384185
1178000000.0 -0.735625 -0.383898
1179000000.0 -0.735933 -0.383583
1180000000.0 -0.736137 -0.38323
1181000000.0 -0.736253 -0.382932
1182000000.0 -0.736591 -0.382648
1183000000.0 -0.736715 -0.382382
1184000000.0 -0.737047 -0.382019
1185000000.0 -0.737265 -0.381675
1186000000.0 -0.737576 -0.381352
1187000000.0 -0.737909 -0.381028
1188000000.0 -0.738165 -0.380726
1189000000.0 -0.738397 -0.380251
1190000000.0 -0.738809 -0.380041
1191000000.0 -0.739087 -0.379647
1192000000.0 -0.739334 -0.379262
1193000000.0 -0.739713 -0.378991
1194000000.0 -0.74015 -0.378722
1195000000.0 -0.740522 -0.37828
1196000000.0 -0.740714 -0.377921
1197000000.0 -0.74115 -0.377683
1198000000.0 -0.741558 -0.377249
1199000000.0 -0.741889 -0.376933
1200000000.0 -0.742375 -0.376551
1201000000.0 -0.742749 -0.376182
1202000000.0 -0.74304 -0.375787
1203000000.0 -0.743437 -0.375417
1204000000.0 -0.743838 -0.375134
1205000000.0 -0.744163 -0.374661
1206000000.0 -0.744645 -0.374284
1207000000.0 -0.745161 -0.373989
1208000000.0 -0.745577 -0.373553
1209000000.0 -0.745968 -0.373216
1210000000.0 -0.746293 -0.372758
1211000000.0 -0.746838 -0.372394
1212000000.0 -0.747246 -0.371848
1213000000.0 -0.747563 -0.371514
1214000000.0 -0.748083 -0.371173
1215000000.0 -0.748349 -0.370535
1216000000.0 -0.748944 -0.370139
1217000000.0 -0.749245 -0.369728
1218000000.0 -0.749704 -0.369244
1219000000.0 -0.750028 -0.368657
1220000000.0 -0.750378 -0.368136
1221000000.0 -0.750723 -0.367883
1222000000.0 -0.751205 -0.367284
1223000000.0 -0.751539 -0.366761
1224000000.0 -0.751886 -0.36636
1225000000.0 -0.752147 -0.365862
1226000000.0 -0.752487 -0.365325
1227000000.0 -0.752902 -0.364816
1228000000.0 -0.753233 -0.364372
1229000000.0 -0.753507 -0.363883
1230000000.0 -0.753744 -0.363395
1231000000.0 -0.754043 -0.362939
1232000000.0 -0.754118 -0.362546
1233000000.0 -0.754502 -0.362067
1234000000.0 -0.754757 -0.361626
1235000000.0 -0.755071 -0.361152
1236000000.0 -0.755269 -0.360819
1237000000.0 -0.755585 -0.360356
1238000000.0 -0.755878 -0.360007
1239000000.0 -0.756047 -0.359607
1240000000.0 -0.756213 -0.359299
1241000000.0 -0.756497 -0.358882
1242000000.0 -0.756619 -0.358566
1243000000.0 -0.756881 -0.358167
1244000000.0 -0.757137 -0.357829
1245000000.0 -0.757373 -0.357623
1246000000.0 -0.75764 -0.357287
1247000000.0 -0.757862 -0.357017
1248000000.0 -0.758098 -0.356791
1249000000.0 -0.758266 -0.356482
1250000000.0 -0.758469 -0.356161
1251000000.0 -0.758876 -0.355956
1252000000.0 -0.759117 -0.355746
1253000000.0 -0.759261 -0.355482
1254000000.0 -0.759589 -0.355203
1255000000.0 -0.759901 -0.355075
1256000000.0 -0.760207 -0.354775
1257000000.0 -0.760496 -0.354487
1258000000.0 -0.760812 -0.354347
1259000000.0 -0.761101 -0.354069
1260000000.0 -0.761355 -0.353889
1261000000.0 -0.761689 -0.353733
1262000000.0 -0.762014 -0.353476
1263000000.0 -0.762302 -0.353251
1264000000.0 -0.762694 -0.353119
1265000000.0 -0.762971 -0.352931
1266000000.0 -0.763295 -0.352727
1267000000.0 -0.76374 -0.35245
1268000000.0 -0.763952 -0.352217
1269000000.0 -0.764335 -0.352064
1270000000.0 -0.764811 -0.351828
1271000000.0 -0.765071 -0.351563
1272000000.0 -0.765448 -0.351394
1273000000.0 -0.765771 -0.351233
1274000000.0 -0.76622 -0.350839
1275000000.0 -0.766555 -0.350681
1276000000.0 -0.766935 -0.35041
1277000000.0 -0.767326 -0.350172
1278000000.0 -0.767668 -0.349895
1279000000.0 -0.768053 -0.349693
1280000000.0 -0.768321 -0.349456
1281000000.0 -0.768754 -0.349203
1282000000.0 -0.769084 -0.348942
1283000000.0 -0.769536 -0.348535
1284000000.0 -0.769999 -0.348326
1285000000.0 -0.770336 -0.348093
1286000000.0 -0.770661 -0.347727
1287000000.0 -0.771028 -0.347454
1288000000.0 -0.771345 -0.347043
1289000000.0 -0.771735 -0.346765
1290000000.0 -0.772113 -0.346537
1291000000.0 -0.772379 -0.346091
1292000000.0 -0.772692 -0.345707
1293000000.0 -0.773068 -0.345523
1294000000.0 -0.773389 -0.345107
1295000000.0 -0.773655 -0.344778
1296000000.0 -0.774009 -0.344454
1297000000.0 -0.774265 -0.343987
1298000000.0 -0.77451 -0.343668
1299000000.0 -0.774781 -0.343418
1300000000.0 -0.775136 -0.343115
1301000000.0 -0.775204 -0.342782
1302000000.0 -0.775568 -0.342399
1303000000.0 -0.775783 -0.342098
1304000000.0 -0.77599 -0.341717
1305000000.0 -0.776145 -0.341488
1306000000.0 -0.776462 -0.341147
1307000000.0 -0.776577 -0.340861
1308000000.0 -0.776694 -0.340552
1309000000.0 -0.777016 -0.340202
1310000000.0 -0.777206 -0.339831
1311000000.0 -0.777311 -0.339516
1312000000.0 -0.777511 -0.339271
1313000000.0 -0.777544 -0.339109
1314000000.0 -0.777773 -0.338637
1315000000.0 -0.777964 -0.338345
1316000000.0 -0.778013 -0.337933
1317000000.0 -0.778369 -0.337766
1318000000.0 -0.778409 -0.337411
1319000000.0 -0.778591 -0.337303
1320000000.0 -0.778757 -0.337034
1321000000.0 -0.778947 -0.336759
1322000000.0 -0.77885 -0.336572
1323000000.0 -0.779039 -0.336311
1324000000.0 -0.779165 -0.33605
1325000000.0 -0.779377 -0.335813
1326000000.0 -0.779336 -0.33561
1327000000.0 -0.779541 -0.335421
1328000000.0 -0.779706 -0.33529
1329000000.0 -0.779904 -0.33501
1330000000.0 -0.779813 -0.334943
1331000000.0 -0.780042 -0.334729
1332000000.0 -0.780272 -0.334587
1333000000.0 -0.780378 -0.33423
1334000000.0 -0.780422 -0.334222
1335000000.0 -0.780757 -0.333979
1336000000.0 -0.780924 -0.333684
1337000000.0 -0.780996 -0.333673
1338000000.0 -0.781132 -0.333505
1339000000.0 -0.781169 -0.333176
1340000000.0 -0.781504 -0.33312
1341000000.0 -0.781598 -0.332957
1342000000.0 -0.781868 -0.332781
1343000000.0 -0.782048 -0.33252
1344000000.0 -0.782124 -0.332318
1345000000.0 -0.78232 -0.332075
1346000000.0 -0.782477 -0.331962
1347000000.0 -0.782669 -0.331673
1348000000.0 -0.782841 -0.331489
1349000000.0 -0.783048 -0.331253
1350000000.0 -0.783133 -0.331046
1351000000.0 -0.783398 -0.330883
1352000000.0 -0.783442 -0.33067
1353000000.0 -0.78371 -0.330392
1354000000.0 -0.783909 -0.330189
1355000000.0 -0.78416 -0.329802
1356000000.0 -0.784054 -0.329692
1357000000.0 -0.784376 -0.329397
1358000000.0 -0.784532 -0.329013
1359000000.0 -0.784574 -0.328798
1360000000.0 -0.784771 -0.328501
1361000000.0 -0.785008 -0.328251
1362000000.0 -0.785154 -0.328068
1363000000.0 -0.785193 -0.327642
1364000000.0 -0.785303 -0.327396
1365000000.0 -0.785467 -0.327018
1366000000.0 -0.785705 -0.326792
1367000000.0 -0.78566 -0.326394
1368000000.0 -0.785698 -0.326093
1369000000.0 -0.785773 -0.325779
1370000000.0 -0.785977 -0.325454
1371000000.0 -0.785949 -0.32512
1372000000.0 -0.785994 -0.324821
1373000000.0 -0.78618 -0.324382
1374000000.0 -0.786206 -0.324172
1375000000.0 -0.78618 -0.32375
1376000000.0 -0.786238 -0.323479
1377000000.0 -0.786287 -0.323084
1378000000.0 -0.786303 -0.32271
1379000000.0 -0.786287 -0.322413
1380000000.0 -0.786317 -0.322162
1381000000.0 -0.786383 -0.321725
1382000000.0 -0.786302 -0.321397
1383000000.0 -0.78631 -0.321126
1384000000.0 -0.786273 -0.320713
1385000000.0 -0.786288 -0.32043
1386000000.0 -0.786205 -0.320097
1387000000.0 -0.786201 -0.319801
1388000000.0 -0.786241 -0.319461
1389000000.0 -0.786253 -0.319088
1390000000.0 -0.786108 -0.318804
1391000000.0 -0.785988 -0.31856
1392000000.0 -0.786004 -0.318311
1393000000.0 -0.785971 -0.317903
1394000000.0 -0.785939 -0.317693
1395000000.0 -0.78581 -0.317435
1396000000.0 -0.785804 -0.317182
1397000000.0 -0.785708 -0.316921
1398000000.0 -0.78561 -0.316584
1399000000.0 -0.785633 -0.316326
1400000000.0 -0.785495 -0.315984
1401000000.0 -0.785343 -0.315771
1402000000.0 -0.785242 -0.315502
1403000000.0 -0.785087 -0.315299
1404000000.0 -0.785102 -0.31505
1405000000.0 -0.784904 -0.314803
1406000000.0 -0.784909 -0.31448
1407000000.0 -0.784749 -0.31446
1408000000.0 -0.784616 -0.314029
1409000000.0 -0.784559 -0.313835
1410000000.0 -0.784439 -0.313752
1411000000.0 -0.784333 -0.313465
1412000000.0 -0.784226 -0.313284
1413000000.0 -0.784169 -0.312992
1414000000.0 -0.78408 -0.312825
1415000000.0 -0.783937 -0.312588
1416000000.0 -0.78394 -0.312409
1417000000.0 -0.783756 -0.312189
1418000000.0 -0.783662 -0.312037
1419000000.0 -0.783459 -0.311905
1420000000.0 -0.783461 -0.311525
1421000000.0 -0.78331 -0.311449
1422000000.0 -0.783325 -0.311221
1423000000.0 -0.78325 -0.311115
1424000000.0 -0.783186 -0.310877
1425000000.0 -0.783069 -0.310669
1426000000.0 -0.783058 -0.310651
1427000000.0 -0.783024 -0.310461
1428000000.0 -0.78287 -0.310218
1429000000.0 -0.782861 -0.310038
1430000000.0 -0.782836 -0.309889
1431000000.0 -0.782823 -0.30984
1432000000.0 -0.782846 -0.309705
1433000000.0 -0.78275 -0.309467
1434000000.0 -0.782699 -0.309319
1435000000.0 -0.782789 -0.309206
1436000000.0 -0.782628 -0.309044
1437000000.0 -0.782576 -0.308995
1438000000.0 -0.782598 -0.308809
1439000000.0 -0.782605 -0.308623
1440000000.0 -0.782508 -0.308489
1441000000.0 -0.782596 -0.308398
1442000000.0 -0.782523 -0.30837
1443000000.0 -0.782596 -0.308132
1444000000.0 -0.782521 -0.308002
1445000000.0 -0.782571 -0.307853
1446000000.0 -0.782655 -0.307716
1447000000.0 -0.782535 -0.307623
1448000000.0 -0.782544 -0.307326
1449000000.0 -0.78269 -0.307399
1450000000.0 -0.782618 -0.307261
1451000000.0 -0.782764 -0.307063
1452000000.0 -0.782804 -0.30705
1453000000.0 -0.782626 -0.306825
1454000000.0 -0.782744 -0.306709
1455000000.0 -0.782767 -0.306563
1456000000.0 -0.782845 -0.306382
1457000000.0 -0.782851 -0.306303
1458000000.0 -0.782895 -0.306177
1459000000.0 -0.782963 -0.306049
1460000000.0 -0.78305 -0.305917
1461000000.0 -0.783021 -0.305718
1462000000.0 -0.783113 -0.305651
1463000000.0 -0.783203 -0.305442
1464000000.0 -0.783247 -0.305347
1465000000.0 -0.7833 -0.305221
1466000000.0 -0.783372 -0.305051
1467000000.0 -0.783482 -0.304864
1468000000.0 -0.783615 -0.304825
1469000000.0 -0.783665 -0.304503
1470000000.0 -0.783695 -0.304439
1471000000.0 -0.783867 -0.304208
1472000000.0 -0.783999 -0.304085
1473000000.0 -0.783974 -0.303888
1474000000.0 -0.784136 -0.303845
1475000000.0 -0.784132 -0.303784
1476000000.0 -0.784302 -0.303496
1477000000.0 -0.784361 -0.303337
1478000000.0 -0.784455 -0.303208
1479000000.0 -0.784571 -0.302924
1480000000.0 -0.784642 -0.302754
1481000000.0 -0.784702 -0.302614
1482000000.0 -0.784856 -0.302531
1483000000.0 -0.784995 -0.302226
1484000000.0 -0.78508 -0.302188
1485000000.0 -0.785208 -0.301863
1486000000.0 -0.785326 -0.30176
1487000000.0 -0.785419 -0.301569
1488000000.0 -0.785499 -0.301368
1489000000.0 -0.785652 -0.301175
1490000000.0 -0.785682 -0.30089
1491000000.0 -0.785872 -0.300636
1492000000.0 -0.785997 -0.300529
1493000000.0 -0.786037 -0.30033
1494000000.0 -0.786127 -0.300178
1495000000.0 -0.786296 -0.300017
1496000000.0 -0.786517 -0.299784
1497000000.0 -0.786573 -0.299525
1498000000.0 -0.78658 -0.299316
1499000000.0 -0.786667 -0.299163
1500000000.0 -0.786914 -0.299007
1501000000.0 -0.786982 -0.298818
1502000000.0 -0.787038 -0.298619
1503000000.0 -0.787248 -0.298366
1504000000.0 -0.787287 -0.29821
1505000000.0 -0.787434 -0.298024
1506000000.0 -0.78745 -0.297932
1507000000.0 -0.787597 -0.297734
1508000000.0 -0.787666 -0.297362
1509000000.0 -0.787743 -0.297249
1510000000.0 -0.787777 -0.296994
1511000000.0 -0.787838 -0.296822
1512000000.0 -0.787984 -0.296676
1513000000.0 -0.787948 -0.296471
1514000000.0 -0.788033 -0.296183
1515000000.0 -0.788175 -0.296144
1516000000.0 -0.788231 -0.29588
1517000000.0 -0.788263 -0.29568
1518000000.0 -0.788472 -0.295548
1519000000.0 -0.788404 -0.295299
1520000000.0 -0.788524 -0.29517
1521000000.0 -0.7888 -0.295029
1522000000.0 -0.78868 -0.294762
1523000000.0 -0.788713 -0.294724
1524000000.0 -0.788717 -0.294386
1525000000.0 -0.788833 -0.294436
1526000000.0 -0.78901 -0.294196
1527000000.0 -0.789197 -0.294144
1528000000.0 -0.78924 -0.293977
1529000000.0 -0.789359 -0.293905
1530000000.0 -0.789427 -0.29364
1531000000.0 -0.789493 -0.293564
1532000000.0 -0.789585 -0.293349
1533000000.0 -0.789482 -0.293282
1534000000.0 -0.789555 -0.293132
1535000000.0 -0.789947 -0.292998
1536000000.0 -0.789863 -0.292864
1537000000.0 -0.789946 -0.29267
1538000000.0 -0.790019 -0.292612
1539000000.0 -0.790193 -0.292496
1540000000.0 -0.79027 -0.292301
1541000000.0 -0.790427 -0.292255
1542000000.0 -0.790543 -0.292141
1543000000.0 -0.790762 -0.292087
1544000000.0 -0.790745 -0.291864
1545000000.0 -0.790794 -0.291828
1546000000.0 -0.791026 -0.291707
1547000000.0 -0.791103 -0.29157
1548000000.0 -0.791199 -0.291557
1549000000.0 -0.791336 -0.291476
1550000000.0 -0.791377 -0.291305
1551000000.0 -0.791708 -0.29109
1552000000.0 -0.791703 -0.290989
1553000000.0 -0.791742 -0.290947
1554000000.0 -0.791998 -0.29098
1555000000.0 -0.792134 -0.290722
1556000000.0 -0.7923 -0.290776
1557000000.0 -0.792438 -0.290471
1558000000.0 -0.792675 -0.2905
1559000000.0 -0.792698 -0.290478
1560000000.0 -0.792886 -0.290372
1561000000.0 -0.792997 -0.290097
1562000000.0 -0.793118 -0.290213
1563000000.0 -0.793191 -0.290013
1564000000.0 -0.793503 -0.289983
1565000000.0 -0.793622 -0.289888
1566000000.0 -0.793762 -0.289804
1567000000.0 -0.793875 -0.289575
1568000000.0 -0.793998 -0.289685
1569000000.0 -0.794383 -0.289663
1570000000.0 -0.794399 -0.28944
1571000000.0 -0.794458 -0.289426
1572000000.0 -0.794826 -0.289372
1573000000.0 -0.794928 -0.289202
1574000000.0 -0.795215 -0.289252
1575000000.0 -0.795134 -0.28912
1576000000.0 -0.79537 -0.288956
1577000000.0 -0.795561 -0.288843
1578000000.0 -0.795589 -0.288809
1579000000.0 -0.79578 -0.288653
1580000000.0 -0.795942 -0.288623
1581000000.0 -0.796009 -0.288465
1582000000.0 -0.79618 -0.288411
1583000000.0 -0.796203 -0.288372
1584000000.0 -0.796689 -0.288241
1585000000.0 -0.796773 -0.288129
1586000000.0 -0.796867 -0.288015
1587000000.0 -0.796957 -0.287948
1588000000.0 -0.797168 -0.287821
1589000000.0 -0.797249 -0.287753
1590000000.0 -0.797543 -0.28783
1591000000.0 -0.797554 -0.287559
1592000000.0 -0.797744 -0.287402
1593000000.0 -0.797961 -0.287211
1594000000.0 -0.798095 -0.287166
1595000000.0 -0.798216 -0.287101
1596000000.0 -0.798547 -0.286922
1597000000.0 -0.798656 -0.28683
1598000000.0 -0.798821 -0.286771
1599000000.0 -0.798874 -0.286527
1600000000.0 -0.799125 -0.286548
1601000000.0 -0.799263 -0.286468
1602000000.0 -0.799429 -0.286391
1603000000.0 -0.799587 -0.286233
1604000000.0 -0.79982 -0.286223
1605000000.0 -0.799856 -0.286036
1606000000.0 -0.800195 -0.285935
1607000000.0 -0.80029 -0.285898
1608000000.0 -0.800461 -0.285712
1609000000.0 -0.800695 -0.28567
1610000000.0 -0.800775 -0.285579
1611000000.0 -0.801006 -0.285456
1612000000.0 -0.801185 -0.28535
1613000000.0 -0.801315 -0.285206
1614000000.0 -0.801569 -0.285166
1615000000.0 -0.801665 -0.285066
1616000000.0 -0.801804 -0.284956
1617000000.0 -0.801991 -0.284875
1618000000.0 -0.802057 -0.284768
1619000000.0 -0.802236 -0.284607
1620000000.0 -0.802398 -0.28456
1621000000.0 -0.802489 -0.284405
1622000000.0 -0.802605 -0.2843
1623000000.0 -0.802755 -0.284119
1624000000.0 -0.802782 -0.283962
1625000000.0 -0.802896 -0.283908
1626000000.0 -0.803022 -0.283677
1627000000.0 -0.803309 -0.283436
1628000000.0 -0.803307 -0.283401
1629000000.0 -0.80332 -0.283204
1630000000.0 -0.80349 -0.282922
1631000000.0 -0.803566 -0.282876
1632000000.0 -0.803525 -0.282658
1633000000.0 -0.803752 -0.28254
1634000000.0 -0.803766 -0.282439
1635000000.0 -0.803753 -0.282286
1636000000.0 -0.803959 -0.28213
1637000000.0 -0.804062 -0.281838
1638000000.0 -0.80412 -0.281788
1639000000.0 -0.804061 -0.281661
1640000000.0 -0.80423 -0.281444
1641000000.0 -0.804213 -0.281236
1642000000.0 -0.80431 -0.281129
1643000000.0 -0.804198 -0.281056
1644000000.0 -0.804335 -0.280845
1645000000.0 -0.80442 -0.280744
1646000000.0 -0.804323 -0.280595
1647000000.0 -0.804331 -0.280469
1648000000.0 -0.804344 -0.280298
1649000000.0 -0.804377 -0.280117
1650000000.0 -0.804311 -0.279946
1651000000.0 -0.804397 -0.279856
1652000000.0 -0.804323 -0.279732
1653000000.0 -0.804419 -0.279504
1654000000.0 -0.804221 -0.279428
1655000000.0 -0.804202 -0.279317
1656000000.0 -0.804491 -0.279138
1657000000.0 -0.804273 -0.278999
1658000000.0 -0.804263 -0.278809
1659000000.0 -0.804153 -0.278715
1660000000.0 -0.804121 -0.278648
1661000000.0 -0.804147 -0.278573
1662000000.0 -0.804125 -0.278309
1663000000.0 -0.804008 -0.278246
1664000000.0 -0.804014 -0.278158
1665000000.0 -0.804029 -0.278063
1666000000.0 -0.803988 -0.277943
1667000000.0 -0.803973 -0.277812
1668000000.0 -0.803817 -0.277669
1669000000.0 -0.80371 -0.27772
1670000000.0 -0.803821 -0.277606
1671000000.0 -0.803727 -0.277418
1672000000.0 -0.803556 -0.277445
1673000000.0 -0.803585 -0.277202
1674000000.0 -0.803377 -0.277149
1675000000.0 -0.803459 -0.27715
1676000000.0 -0.803322 -0.277054
1677000000.0 -0.803277 -0.276988
1678000000.0 -0.803132 -0.276906
1679000000.0 -0.803161 -0.276828
1680000000.0 -0.803021 -0.276815
1681000000.0 -0.803042 -0.276604
1682000000.0 -0.802906 -0.276595
1683000000.0 -0.802944 -0.27655
1684000000.0 -0.802846 -0.276485
1685000000.0 -0.802904 -0.276424
1686000000.0 -0.802718 -0.276369
1687000000.0 -0.802474 -0.276316
1688000000.0 -0.802413 -0.276263
1689000000.0 -0.802366 -0.276214
1690000000.0 -0.802356 -0.276146
1691000000.0 -0.802225 -0.276155
1692000000.0 -0.802265 -0.276176
1693000000.0 -0.802202 -0.276027
1694000000.0 -0.802079 -0.276002
1695000000.0 -0.80186 -0.275849
1696000000.0 -0.8019 -0.276055
1697000000.0 -0.801895 -0.276053
1698000000.0 -0.801671 -0.276018
1699000000.0 -0.801679 -0.27582
1700000000.0 -0.80158 -0.275881
1701000000.0 -0.801556 -0.275706
1702000000.0 -0.801449 -0.275748
1703000000.0 -0.801272 -0.275687
1704000000.0 -0.801153 -0.27555
1705000000.0 -0.80119 -0.275711
1706000000.0 -0.8011 -0.275488
1707000000.0 -0.801049 -0.275558
1708000000.0 -0.800906 -0.275542
1709000000.0 -0.800821 -0.275421
1710000000.0 -0.8008 -0.27536
1711000000.0 -0.800688 -0.275273
1712000000.0 -0.800604 -0.275207
1713000000.0 -0.800528 -0.275179
1714000000.0 -0.800372 -0.275088
1715000000.0 -0.800348 -0.275076
1716000000.0 -0.800224 -0.275071
1717000000.0 -0.800111 -0.27491
1718000000.0 -0.800094 -0.274884
1719000000.0 -0.800063 -0.274821
1720000000.0 -0.799911 -0.274754
1721000000.0 -0.799798 -0.274746
1722000000.0 -0.79977 -0.274651
1723000000.0 -0.799744 -0.274473
1724000000.0 -0.799608 -0.274528
1725000000.0 -0.799573 -0.274285
1726000000.0 -0.799586 -0.274304
1727000000.0 -0.799431 -0.274219
1728000000.0 -0.799417 -0.274069
1729000000.0 -0.799363 -0.274068
1730000000.0 -0.799097 -0.27391
1731000000.0 -0.7991 -0.273782
1732000000.0 -0.799056 -0.273692
1733000000.0 -0.799072 -0.273656
1734000000.0 -0.798889 -0.273553
1735000000.0 -0.798761 -0.273397
1736000000.0 -0.798723 -0.273295
1737000000.0 -0.798602 -0.273288
1738000000.0 -0.798673 -0.273084
1739000000.0 -0.798613 -0.273066
1740000000.0 -0.798373 -0.272927
1741000000.0 -0.798354 -0.27288
1742000000.0 -0.79823 -0.272701
1743000000.0 -0.79815 -0.272606
1744000000.0 -0.7981 -0.272451
1745000000.0 -0.798109 -0.27225
1746000000.0 -0.797793 -0.272229
1747000000.0 -0.797794 -0.272016
1748000000.0 -0.79766 -0.271999
1749000000.0 -0.797638 -0.271777
1750000000.0 -0.797546 -0.271639
1751000000.0 -0.797605 -0.271399
1752000000.0 -0.797368 -0.271351
1753000000.0 -0.797346 -0.271272
1754000000.0 -0.797244 -0.27112
1755000000.0 -0.79721 -0.270878
1756000000.0 -0.79694 -0.270559
1757000000.0 -0.796907 -0.270507
1758000000.0 -0.796679 -0.270418
1759000000.0 -0.796725 -0.270251
1760000000.0 -0.796665 -0.270112
1761000000.0 -0.796415 -0.269941
1762000000.0 -0.796299 -0.269853
1763000000.0 -0.796467 -0.269636
1764000000.0 -0.796173 -0.269461
1765000000.0 -0.796057 -0.269184
1766000000.0 -0.796073 -0.2691
1767000000.0 -0.795747 -0.268987
1768000000.0 -0.795712 -0.268633
1769000000.0 -0.795622 -0.268547
1770000000.0 -0.795532 -0.268244
1771000000.0 -0.795444 -0.268224
1772000000.0 -0.795336 -0.268108
1773000000.0 -0.795331 -0.267827
1774000000.0 -0.795263 -0.267561
1775000000.0 -0.794795 -0.267424
1776000000.0 -0.794985 -0.267445
1777000000.0 -0.79496 -0.267086
1778000000.0 -0.794866 -0.266917
1779000000.0 -0.794746 -0.266777
1780000000.0 -0.794609 -0.266569
1781000000.0 -0.794597 -0.266371
1782000000.0 -0.794362 -0.266159
1783000000.0 -0.794165 -0.266159
1784000000.0 -0.794033 -0.265704
1785000000.0 -0.793909 -0.265466
1786000000.0 -0.793919 -0.265395
1787000000.0 -0.793761 -0.265234
1788000000.0 -0.793646 -0.26498
1789000000.0 -0.793662 -0.26475
1790000000.0 -0.793391 -0.264813
1791000000.0 -0.793289 -0.264401
1792000000.0 -0.793223 -0.264304
1793000000.0 -0.793108 -0.264044
1794000000.0 -0.79296 -0.26389
1795000000.0 -0.792782 -0.263783
1796000000.0 -0.792625 -0.26354
1797000000.0 -0.792527 -0.263349
1798000000.0 -0.79243 -0.263047
1799000000.0 -0.792469 -0.262918
1800000000.0 -0.792217 -0.262651
1801000000.0 -0.792074 -0.262624
1802000000.0 -0.791964 -0.262341
1803000000.0 -0.791891 -0.262033
1804000000.0 -0.79171 -0.26191
1805000000.0 -0.791879 -0.261644
1806000000.0 -0.791497 -0.261487
1807000000.0 -0.791505 -0.261177
1808000000.0 -0.791238 -0.261223
1809000000.0 -0.791257 -0.260955
1810000000.0 -0.791022 -0.260778
1811000000.0 -0.790986 -0.260632
1812000000.0 -0.790784 -0.260232
1813000000.0 -0.790616 -0.260227
1814000000.0 -0.790569 -0.259863
1815000000.0 -0.790397 -0.259774
1816000000.0 -0.790309 -0.25949
1817000000.0 -0.790185 -0.259322
1818000000.0 -0.790154 -0.259189
1819000000.0 -0.790076 -0.258999
1820000000.0 -0.789985 -0.258777
1821000000.0 -0.789879 -0.258521
1822000000.0 -0.789726 -0.25835
1823000000.0 -0.789669 -0.25818
1824000000.0 -0.789632 -0.257905
1825000000.0 -0.789547 -0.257751
1826000000.0 -0.789354 -0.257618
1827000000.0 -0.789371 -0.257493
1828000000.0 -0.789466 -0.257309
1829000000.0 -0.78932 -0.257212
1830000000.0 -0.789101 -0.256909
1831000000.0 -0.789149 -0.256797
1832000000.0 -0.789022 -0.256644
1833000000.0 -0.788972 -0.256507
1834000000.0 -0.788836 -0.256241
1835000000.0 -0.788861 -0.256151
1836000000.0 -0.788784 -0.256018
1837000000.0 -0.788709 -0.2558
1838000000.0 -0.788644 -0.255733
1839000000.0 -0.788664 -0.255527
1840000000.0 -0.788554 -0.255342
1841000000.0 -0.788465 -0.255115
1842000000.0 -0.788474 -0.255025
1843000000.0 -0.788426 -0.254822
1844000000.0 -0.788294 -0.254634
1845000000.0 -0.78813 -0.254583
1846000000.0 -0.788273 -0.254394
1847000000.0 -0.78811 -0.254326
1848000000.0 -0.788151 -0.254023
1849000000.0 -0.788136 -0.25397
1850000000.0 -0.788232 -0.253859
1851000000.0 -0.788014 -0.25372
1852000000.0 -0.788083 -0.253502
1853000000.0 -0.788075 -0.253388
1854000000.0 -0.787919 -0.253286
1855000000.0 -0.78807 -0.253122
1856000000.0 -0.787978 -0.253046
1857000000.0 -0.787823 -0.252827
1858000000.0 -0.787856 -0.252728
1859000000.0 -0.787888 -0.252643
1860000000.0 -0.787805 -0.252537
1861000000.0 -0.787807 -0.252363
1862000000.0 -0.787655 -0.252458
1863000000.0 -0.787721 -0.252202
1864000000.0 -0.787731 -0.252083
1865000000.0 -0.787721 -0.252021
1866000000.0 -0.787746 -0.251761
1867000000.0 -0.787844 -0.251692
1868000000.0 -0.787562 -0.251581
1869000000.0 -0.78761 -0.251385
1870000000.0 -0.787685 -0.251349
1871000000.0 -0.787644 -0.25115
1872000000.0 -0.787572 -0.251042
1873000000.0 -0.787381 -0.250812
1874000000.0 -0.787505 -0.25085
1875000000.0 -0.787427 -0.250656
1876000000.0 -0.78742 -0.250523
1877000000.0 -0.787289 -0.250372
1878000000.0 -0.787318 -0.250193
1879000000.0 -0.787421 -0.250059
1880000000.0 -0.787415 -0.250042
1881000000.0 -0.787357 -0.249935
1882000000.0 -0.787369 -0.249761
1883000000.0 -0.7872 -0.249669
1884000000.0 -0.787228 -0.249541
1885000000.0 -0.78699 -0.249475
1886000000.0 -0.787234 -0.249295
1887000000.0 -0.787014 -0.249173
1888000000.0 -0.787113 -0.249097
1889000000.0 -0.787016 -0.248907
1890000000.0 -0.787012 -0.24885
1891000000.0 -0.787066 -0.248768
1892000000.0 -0.786988 -0.248672
1893000000.0 -0.786834 -0.248526
1894000000.0 -0.786833 -0.248319
1895000000.0 -0.786796 -0.248407
1896000000.0 -0.786853 -0.248173
1897000000.0 -0.786416 -0.24821
1898000000.0 -0.786659 -0.247979
1899000000.0 -0.786804 -0.247903
1900000000.0 -0.786534 -0.247816
1901000000.0 -0.786675 -0.247616
1902000000.0 -0.786483 -0.2476
1903000000.0 -0.786661 -0.247521
1904000000.0 -0.786434 -0.247472
1905000000.0 -0.786424 -0.24739
1906000000.0 -0.78634 -0.247295
1907000000.0 -0.786294 -0.247309
1908000000.0 -0.786269 -0.247013
1909000000.0 -0.786152 -0.247014
1910000000.0 -0.786319 -0.246972
1911000000.0 -0.786144 -0.246749
1912000000.0 -0.786104 -0.246743
1913000000.0 -0.786067 -0.24663
1914000000.0 -0.786087 -0.246567
1915000000.0 -0.786034 -0.246727
1916000000.0 -0.785777 -0.24646
1917000000.0 -0.785955 -0.246475
1918000000.0 -0.785894 -0.246274
1919000000.0 -0.785842 -0.24628
1920000000.0 -0.785901 -0.246158
1921000000.0 -0.785716 -0.246131
1922000000.0 -0.785666 -0.246171
1923000000.0 -0.785591 -0.246126
1924000000.0 -0.785622 -0.245955
1925000000.0 -0.785451 -0.245882
1926000000.0 -0.785494 -0.245809
1927000000.0 -0.785396 -0.245813
1928000000.0 -0.785273 -0.245736
1929000000.0 -0.785327 -0.245646
1930000000.0 -0.785161 -0.245678
1931000000.0 -0.785152 -0.245636
1932000000.0 -0.785083 -0.24557
1933000000.0 -0.784999 -0.245563
1934000000.0 -0.784846 -0.245484
1935000000.0 -0.784866 -0.245302
1936000000.0 -0.784758 -0.24538
1937000000.0 -0.784807 -0.245422
1938000000.0 -0.784523 -0.245279
1939000000.0 -0.784588 -0.245233
1940000000.0 -0.784402 -0.245195
1941000000.0 -0.784462 -0.245305
1942000000.0 -0.784283 -0.245253
1943000000.0 -0.784227 -0.245326
1944000000.0 -0.784149 -0.245183
1945000000.0 -0.784043 -0.245248
1946000000.0 -0.783884 -0.24525
1947000000.0 -0.783825 -0.245282
1948000000.0 -0.783685 -0.245259
1949000000.0 -0.783658 -0.245349
1950000000.0 -0.783631 -0.245278
1951000000.0 -0.783486 -0.245219
1952000000.0 -0.783371 -0.245276
1953000000.0 -0.783254 -0.24529
1954000000.0 -0.7831 -0.245287
1955000000.0 -0.783039 -0.24537
1956000000.0 -0.783012 -0.245254
1957000000.0 -0.782934 -0.245323
1958000000.0 -0.782818 -0.245477
1959000000.0 -0.78271 -0.245377
1960000000.0 -0.782669 -0.245392
1961000000.0 -0.782466 -0.245414
1962000000.0 -0.782406 -0.245386
1963000000.0 -0.782357 -0.24544
1964000000.0 -0.782232 -0.245376
1965000000.0 -0.782105 -0.245422
1966000000.0 -0.781924 -0.245457
1967000000.0 -0.781808 -0.245466
1968000000.0 -0.781704 -0.245587
1969000000.0 -0.781571 -0.245534
1970000000.0 -0.781413 -0.245593
1971000000.0 -0.781387 -0.245588
1972000000.0 -0.781237 -0.245628
1973000000.0 -0.78115 -0.245639
1974000000.0 -0.780981 -0.24565
1975000000.0 -0.780908 -0.245717
1976000000.0 -0.780722 -0.2457
1977000000.0 -0.7806 -0.245748
1978000000.0 -0.780551 -0.245689
1979000000.0 -0.780445 -0.245684
1980000000.0 -0.780287 -0.245901
1981000000.0 -0.780149 -0.245779
1982000000.0 -0.779977 -0.245817
1983000000.0 -0.779838 -0.245922
1984000000.0 -0.779757 -0.245912
1985000000.0 -0.779739 -0.245866
1986000000.0 -0.779564 -0.245843
1987000000.0 -0.779392 -0.245909
1988000000.0 -0.779292 -0.245941
1989000000.0 -0.77915 -0.245852
1990000000.0 -0.778978 -0.245913
1991000000.0 -0.77884 -0.246101
1992000000.0 -0.778765 -0.245982
1993000000.0 -0.778719 -0.246038
1994000000.0 -0.778545 -0.24609
1995000000.0 -0.778344 -0.246152
1996000000.0 -0.778257 -0.246083
1997000000.0 -0.778218 -0.246066
1998000000.0 -0.778031 -0.246088
1999000000.0 -0.777902 -0.246137
2000000000.0 -0.777899 -0.246079
