! Created with skrf 1.12.0 (http://scikit-rf.org).
# Hz S RI R 50.0 
!freq ReS11 ImS11
!
100000000.0 0.9898948999281716 -0.09703776240915485
105000000.0 0.9893804565409721 -0.10177787821855265
110000000.0 0.9888348198834118 -0.10668342054366575
115000000.0 0.9883600919073379 -0.11146551083125612
120000000.0 0.9876149004251024 -0.11623496054906655
125000000.0 0.9869519538904946 -0.12115643329926025
130000000.0 0.9863618403912956 -0.12611721812049315
135000000.0 0.9857254641834767 -0.13076716038716243
140000000.0 0.9850066969405861 -0.1355216100463515
145000000.0 0.9844760930974014 -0.14048522745813888
150000000.0 0.9836510072988962 -0.1452496459820549
155000000.0 0.98297060346828 -0.14999450870954134
160000000.0 0.982212421371485 -0.1547978965330983
165000000.0 0.9814464320924039 -0.15963363441065487
170000000.0 0.980721055708171 -0.1641762674315028
175000000.0 0.97996843887066 -0.16904824476428199
180000000.0 0.9790786402874584 -0.17365727053245397
185000000.0 0.9781342557629736 -0.17859067026420414
190000000.0 0.977377605708853 -0.1832962615236658
195000000.0 0.9764921131980348 -0.18796608291927083
200000000.0 0.9755379168861518 -0.19269517799372007
205000000.0 0.9745015113956411 -0.1975480284048321
210000000.0 0.9735410593033113 -0.20228512462520787
215000000.0 0.9724584699691315 -0.20692261358550934
220000000.0 0.9714082032946085 -0.21177082455513646
225000000.0 0.9703268723306425 -0.2163021590055867
230000000.0 0.9692242060930295 -0.2210582396578005
235000000.0 0.9682120398839853 -0.2257808293298118
240000000.0 0.9671203706002789 -0.23050748640983273
245000000.0 0.9659625266880071 -0.2349912693299347
250000000.0 0.9649116939918595 -0.2396747361704752
255000000.0 0.9637009099913555 -0.24433725238602277
260000000.0 0.9625952243518071 -0.24897876558464582
265000000.0 0.9612394868109994 -0.2536518864965475
270000000.0 0.9600227531298703 -0.25831523983480476
275000000.0 0.9588176413856617 -0.2629489435639483
280000000.0 0.9576086349025988 -0.2676027025658038
285000000.0 0.9562447480840365 -0.2721108087366847
290000000.0 0.9548385107359262 -0.2767446295374702
295000000.0 0.9537001789775147 -0.2812347571944936
300000000.0 0.9523371833939861 -0.2860584037848344
305000000.0 0.9510925331833955 -0.29044469643121795
310000000.0 0.9495826809935015 -0.2950087240307013
315000000.0 0.9481344122516213 -0.2995979292281985
320000000.0 0.9468207626118001 -0.30420606939369227
325000000.0 0.9453637954340586 -0.30861566785489974
330000000.0 0.943868874573506 -0.3131320139897001
335000000.0 0.9424031393774521 -0.3176840462865762
340000000.0 0.940885252138387 -0.3222784689781003
345000000.0 0.9394518058580262 -0.32659441868393485
350000000.0 0.9380171549126369 -0.33111280924222103
355000000.0 0.9363342220652556 -0.33560148022413494
360000000.0 0.9347803688569687 -0.3400824648604847
365000000.0 0.9330923783191959 -0.3444209104146637
370000000.0 0.9314595010597867 -0.3489101263406045
375000000.0 0.9298917342443687 -0.3534535743458633
380000000.0 0.9284271684976398 -0.35787066552591945
385000000.0 0.9267973608337173 -0.36214688453191934
390000000.0 0.9252026285637811 -0.3666677889860281
395000000.0 0.9235476545294572 -0.37094091631209136
400000000.0 0.9218351185582075 -0.3752905620113311
405000000.0 0.9202445611551979 -0.3797228132328081
410000000.0 0.918475522306995 -0.38403781491413397
415000000.0 0.9167246693842522 -0.3884517350182729
420000000.0 0.9149543878237046 -0.39272821123986507
425000000.0 0.913229071742113 -0.3971438063004315
430000000.0 0.911510393132026 -0.4013192526125377
435000000.0 0.9098825883300184 -0.4056356997772683
440000000.0 0.9078720231004527 -0.4098906842414182
445000000.0 0.906090710356675 -0.41414945636770195
450000000.0 0.904114121727812 -0.4184342818411013
455000000.0 0.902363671281022 -0.4226573555559962
460000000.0 0.9005993380571978 -0.42690485366621045
465000000.0 0.8988829261933575 -0.43107877759582713
470000000.0 0.896970560916598 -0.4353552499311142
475000000.0 0.8950497008354982 -0.43957452774302985
480000000.0 0.8931330687034732 -0.44372124432803434
485000000.0 0.8911524285039467 -0.4477732378583875
490000000.0 0.8891819535819978 -0.45192792912290936
495000000.0 0.8874634715630535 -0.45592972232651446
500000000.0 0.8855627545274206 -0.46001961522053053
505000000.0 0.8835503100716103 -0.4641424010187078
510000000.0 0.8816231285131951 -0.4681604733531046
515000000.0 0.8794774582042297 -0.47226749443685917
520000000.0 0.8775040834532428 -0.476222221227316
525000000.0 0.8753409170300221 -0.4804268757506943
530000000.0 0.873440178219042 -0.48439603343968113
535000000.0 0.8712784729965333 -0.4883238072407835
540000000.0 0.8692340545523041 -0.492355537899942
545000000.0 0.8671923987097051 -0.4963231136623264
550000000.0 0.865166093497223 -0.5002145100860051
555000000.0 0.8630559925817856 -0.5042091388008618
560000000.0 0.8609337404696015 -0.5080561046625687
565000000.0 0.8588791971240562 -0.5120029988185507
570000000.0 0.8566851369823215 -0.5157949966845715
575000000.0 0.8546206596771703 -0.5196513936303436
580000000.0 0.8523777760294862 -0.5235237956086884
585000000.0 0.8503498429088961 -0.5272928077991109
590000000.0 0.8481252202891078 -0.5311164101095215
595000000.0 0.8459629904953061 -0.5349489222844935
600000000.0 0.8438297876567099 -0.5387834931765095
605000000.0 0.8414437172104843 -0.5425066444039545
610000000.0 0.8393605785641242 -0.5461665590409223
615000000.0 0.8371962162468182 -0.5498302362283315
620000000.0 0.8349815370994543 -0.5534625878038676
625000000.0 0.8327235921115526 -0.5570267398731531
630000000.0 0.8305740270570332 -0.5606333643224523
635000000.0 0.8283093467893259 -0.5643569551011522
640000000.0 0.8258547612423005 -0.5678116805165421
645000000.0 0.8233759319100042 -0.5713803072708179
650000000.0 0.8213308833584608 -0.5749369880616019
655000000.0 0.8190581428077499 -0.5784327782864735
660000000.0 0.8166131312524395 -0.5819636087044756
665000000.0 0.8143490369084027 -0.5854040420758492
670000000.0 0.811880356984713 -0.588989179016239
675000000.0 0.8095642150659158 -0.5924365201208152
680000000.0 0.8071485766618838 -0.5958321230439874
685000000.0 0.804925053281609 -0.5992569331762707
690000000.0 0.8025166307246687 -0.6026716489185846
695000000.0 0.8000963027686636 -0.6060567989883181
700000000.0 0.7976472688747726 -0.6093313063234471
705000000.0 0.7952539297243585 -0.6126889115435237
710000000.0 0.792913697230449 -0.6159100696435219
715000000.0 0.7905051232352498 -0.6190543870590347
720000000.0 0.7881173956244594 -0.6223606477868596
725000000.0 0.7856442616014683 -0.6255715511387614
730000000.0 0.7832372598717369 -0.6288317144727437
735000000.0 0.7806382587364491 -0.6321716654337783
740000000.0 0.7782224517968512 -0.6352962797860746
745000000.0 0.7758336166722286 -0.6385630547635577
750000000.0 0.7732843263869382 -0.6418350686480938
755000000.0 0.7708593301587895 -0.6450041454420001
760000000.0 0.7683677260876133 -0.6479692626096786
765000000.0 0.7657215956495252 -0.6510572957040586
770000000.0 0.7632236106152814 -0.6541346750914114
775000000.0 0.7608309860488194 -0.6572402661341369
780000000.0 0.758123021528056 -0.6602763484023936
785000000.0 0.755553887186037 -0.663405196484216
790000000.0 0.7531070153413665 -0.6663267182480239
795000000.0 0.7505029168831084 -0.669154840955038
800000000.0 0.747972091055681 -0.6720886883824672
805000000.0 0.7454173820182857 -0.6751677064331183
810000000.0 0.74289286680059 -0.6779377418046032
815000000.0 0.740295413207833 -0.6808276274162713
820000000.0 0.7376783916191539 -0.6837249449757453
825000000.0 0.7350992450248541 -0.6864721202080524
830000000.0 0.7324062988364766 -0.6893721964406386
835000000.0 0.7298574658864336 -0.6922045902378954
840000000.0 0.7272313594006723 -0.6950311957055413
845000000.0 0.7247132148775878 -0.6978785176190018
850000000.0 0.7219405259378425 -0.7003983481579944
855000000.0 0.7192977693822906 -0.7032391174734566
860000000.0 0.7166671188555528 -0.7060306150998057
865000000.0 0.7139072144568358 -0.7084718425252834
870000000.0 0.711418850406833 -0.7111842600243644
875000000.0 0.7086463711367204 -0.7138739958938872
880000000.0 0.7060792405835912 -0.7164382440192344
885000000.0 0.7034119911774872 -0.7189555553000804
890000000.0 0.700457859187725 -0.72139449148225
895000000.0 0.6979042597711065 -0.7240457570523455
900000000.0 0.6951268395866463 -0.7264472066291323
905000000.0 0.6925889184868941 -0.7289328071394571
910000000.0 0.6898236677654227 -0.7314545882134451
915000000.0 0.687046571028388 -0.7338788661372271
920000000.0 0.6842435536195035 -0.7362677236899543
925000000.0 0.6816872729253611 -0.7387033777220787
930000000.0 0.6787960522646022 -0.7409713118453644
935000000.0 0.6761466762467865 -0.7432907285929765
940000000.0 0.6734275021991796 -0.7455341716716279
945000000.0 0.6706510221550122 -0.7476427160812358
950000000.0 0.668022553164045 -0.749863095003535
955000000.0 0.6651106354793179 -0.752072536612456
960000000.0 0.6622971426214506 -0.7542937273788166
965000000.0 0.6595958814235714 -0.756354260558815
970000000.0 0.656704834722441 -0.7586025677573887
975000000.0 0.6539225758130274 -0.760808236361584
980000000.0 0.6512210485130328 -0.7630383139664497
985000000.0 0.6484989388842607 -0.7650861820306379
990000000.0 0.6458844799952844 -0.767183278699893
995000000.0 0.6432378314215162 -0.7691814149184623
1000000000.0 0.6404693651256047 -0.7713425167060874
1005000000.0 0.6378654010488429 -0.7733613680066904
1010000000.0 0.6350304295095586 -0.7751967499104614
1015000000.0 0.6322315122824931 -0.7772196688407269
1020000000.0 0.6294279040634443 -0.7792154290323839
1025000000.0 0.6268544501660782 -0.7809622808003869
1030000000.0 0.6239301937360998 -0.7827897172870868
1035000000.0 0.6210450236332836 -0.78444109489174
1040000000.0 0.6182201769440216 -0.7863193078341462
1045000000.0 0.6155664570768735 -0.7879961026729176
1050000000.0 0.6126711132873782 -0.7897992657423152
1055000000.0 0.6097542028114379 -0.7914032141111561
1060000000.0 0.6068277775187869 -0.7931094063882242
1065000000.0 0.6041757653580339 -0.7948067537361906
1070000000.0 0.6012484909761779 -0.7964498176934955
1075000000.0 0.59847420960923 -0.7981158914494112
1080000000.0 0.5955520353638748 -0.7997755215616669
1085000000.0 0.592916409094919 -0.8013375430549781
1090000000.0 0.5899972378212108 -0.8028003894809024
1095000000.0 0.5870831838662651 -0.80449120298018
1100000000.0 0.5842909255634344 -0.8058646935908842
1105000000.0 0.581453254805692 -0.8073444657318161
1110000000.0 0.5785975078659106 -0.8087572650522088
1115000000.0 0.5758024584308675 -0.8100774507138583
1120000000.0 0.5730261457427955 -0.8115651674185692
1125000000.0 0.5701836464549218 -0.8128489632893443
1130000000.0 0.5674384046826101 -0.8141320876114294
1135000000.0 0.5646352463522368 -0.8154126545856819
1140000000.0 0.5619219401426028 -0.8166555412665184
1145000000.0 0.5590192913480734 -0.8178917118042733
1150000000.0 0.5561498951287556 -0.819025411275817
1155000000.0 0.5533166485363261 -0.8201311005582876
1160000000.0 0.5501399171572214 -0.8212136490530848
1165000000.0 0.547328822223818 -0.822435407660417
1170000000.0 0.5444470096891495 -0.8234093096026383
1175000000.0 0.5414900306644685 -0.8244284318315027
1180000000.0 0.5385406758001492 -0.8254684382303896
1185000000.0 0.5355593395127052 -0.8264424919491469
1190000000.0 0.5327445097654714 -0.827495228335554
1195000000.0 0.529889933214021 -0.8284703015252969
1200000000.0 0.5269562515270901 -0.829263237519382
1205000000.0 0.5239701755543493 -0.8297978996719694
1210000000.0 0.5209884454285207 -0.8305545934808649
1215000000.0 0.5180910178774727 -0.8314629120247763
1220000000.0 0.5151910570651567 -0.8319410956741619
1225000000.0 0.5122075932607684 -0.8324832178233114
1230000000.0 0.5094344874102246 -0.8330728195452898
1235000000.0 0.5066045670526653 -0.8336669693868736
1240000000.0 0.5037671346677581 -0.8340880367813231
1245000000.0 0.5011869306874304 -0.8345920900956704
1250000000.0 0.4985045475290494 -0.835163973511909
1255000000.0 0.49585280631169565 -0.8357983910028389
1260000000.0 0.4931576599639716 -0.8361724304230709
1265000000.0 0.4905486269435934 -0.836745653894392
1270000000.0 0.48791405334561166 -0.8374947254395236
1275000000.0 0.48521597043406756 -0.8382559656405247
1280000000.0 0.48236829955907 -0.8387805221532498
1285000000.0 0.47944490283634905 -0.8393757487991663
1290000000.0 0.47664332016119343 -0.8400392777934362
1295000000.0 0.4736702716729651 -0.8405926709892171
1300000000.0 0.4708814693109291 -0.8412122494586285
1305000000.0 0.4678591879461932 -0.8417275645822032
1310000000.0 0.464907042777983 -0.8423993053591013
1315000000.0 0.46193167488308684 -0.8429414588734605
1320000000.0 0.4589421299956551 -0.8434281945556005
1325000000.0 0.4559877445085318 -0.8439098103037375
1330000000.0 0.45275455040858176 -0.8443503381649569
1335000000.0 0.44972748092951653 -0.8448126074292233
1340000000.0 0.44664138595389663 -0.8451337817350013
1345000000.0 0.4436954855208605 -0.8456303818379713
1350000000.0 0.44054937037595904 -0.8459064814966311
1355000000.0 0.4374472437229208 -0.8462414121178874
1360000000.0 0.4343723602274758 -0.8465349432395579
1365000000.0 0.43127170317931107 -0.8466963676343483
1370000000.0 0.4281387219439836 -0.8472184680339587
1375000000.0 0.4250392460766254 -0.8476227457766391
1380000000.0 0.4217833236797172 -0.8479051490840982
1385000000.0 0.4187729354577362 -0.8480014835815463
1390000000.0 0.4155835069343018 -0.8482122370231387
1395000000.0 0.4125807866533367 -0.848420063440234
1400000000.0 0.40928189404483367 -0.8487444897450799
1405000000.0 0.4062254422276865 -0.8488111828433363
1410000000.0 0.40319604852749097 -0.8488957210826535
1415000000.0 0.3999627716560255 -0.8489681730066031
1420000000.0 0.39673079553659735 -0.849035718228076
1425000000.0 0.39352766622010027 -0.8490749177580474
1430000000.0 0.390365010547536 -0.8490538683559108
1435000000.0 0.38712906984091733 -0.8490281244304647
1440000000.0 0.38393296476283495 -0.8491080120417032
1445000000.0 0.3806391350653483 -0.8491450559358464
1450000000.0 0.3775753116521857 -0.8491731769471024
1455000000.0 0.3743570154775924 -0.8493388695152436
1460000000.0 0.371117302534036 -0.8494094190908689
1465000000.0 0.3679018658401322 -0.8493957676658875
1470000000.0 0.36478977526657846 -0.8494871567545775
1475000000.0 0.36142212097942283 -0.8495302951259708
1480000000.0 0.3582746667022727 -0.8495948377898513
1485000000.0 0.3551496916830938 -0.8497471447453934
1490000000.0 0.351913358671505 -0.8497765073577976
1495000000.0 0.34869606322301233 -0.8498105120879237
1500000000.0 0.3455923002169868 -0.8499232134186988
1505000000.0 0.3424699177964685 -0.849862536487528
1510000000.0 0.33923341336214274 -0.8497321010399734
1515000000.0 0.33611927727195445 -0.8498012580972205
1520000000.0 0.3327801308230805 -0.8495897890260119
1525000000.0 0.32954851628543697 -0.8494956282461696
1530000000.0 0.3263154928980024 -0.8494896665870392
1535000000.0 0.3229385846831204 -0.8492160556958261
1540000000.0 0.31969702424570595 -0.8490710947550868
1545000000.0 0.31635169509644256 -0.8489283732054528
1550000000.0 0.31317685805936724 -0.8487433654171606
1555000000.0 0.3099248197505315 -0.8486258400047814
1560000000.0 0.30667381418513195 -0.8482554107318897
1565000000.0 0.30339174981704 -0.8481258156946433
1570000000.0 0.3000376078406403 -0.8477303242706061
1575000000.0 0.29666094061408815 -0.8473889457001901
1580000000.0 0.2932918603682656 -0.8471619241071092
1585000000.0 0.2898314256638133 -0.8467436608055087
1590000000.0 0.2865591709281942 -0.8464581126971664
1595000000.0 0.28312690521185707 -0.8462956823061579
1600000000.0 0.27963486499274637 -0.8461102874832424
1605000000.0 0.2761711368518758 -0.845960659797193
1610000000.0 0.27298631283500313 -0.8457348316155829
1615000000.0 0.2698220786592724 -0.8454671038653412
1620000000.0 0.2664594990958864 -0.8453330235176536
1625000000.0 0.2632515776666321 -0.8449506216275768
1630000000.0 0.2597510862916477 -0.8447114413288696
1635000000.0 0.25645268514342595 -0.8441309312825925
1640000000.0 0.2531115257369056 -0.8439955582625528
1645000000.0 0.24972333991221315 -0.8435279487170739
1650000000.0 0.2465068447589993 -0.8431653800049562
1655000000.0 0.24328091747261618 -0.8430683798926006
1660000000.0 0.2398673787925573 -0.8426343510336929
1665000000.0 0.23662648085531102 -0.842192888961582
1670000000.0 0.23315574389795837 -0.8418895606687435
1675000000.0 0.22990879139806164 -0.8415068756020874
1680000000.0 0.2265122278579039 -0.8409582152982459
1685000000.0 0.22339064462633185 -0.8404489930706142
1690000000.0 0.21998379741514054 -0.8400684768529091
1695000000.0 0.2167332821653314 -0.8394647192309004
1700000000.0 0.21339314549792218 -0.8390945167618732
1705000000.0 0.21001655309708134 -0.8384193513982203
1710000000.0 0.2068028120654163 -0.8374621375342766
1715000000.0 0.20350015283992617 -0.8367387112124406
1720000000.0 0.20026910322983843 -0.8359859956457949
1725000000.0 0.19702028917064995 -0.8353742013687531
1730000000.0 0.19365996516550898 -0.8346982148882628
1735000000.0 0.19038503202987395 -0.8337422011631911
1740000000.0 0.18725600624602393 -0.8332578843330393
1745000000.0 0.18395423443191475 -0.832296165698437
1750000000.0 0.18084246434700027 -0.8318976365149358
1755000000.0 0.17777026549440603 -0.8313713711993346
1760000000.0 0.17453810545667173 -0.8306765182040425
1765000000.0 0.1714599902787417 -0.8302894056852729
1770000000.0 0.16833397848093365 -0.8300680838344922
1775000000.0 0.1652987885446017 -0.8297535604271367
1780000000.0 0.1624222582229985 -0.8295304989917711
1785000000.0 0.1596487844326317 -0.8290844541878275
1790000000.0 0.15679954572016835 -0.828877714670414
1795000000.0 0.15387685957376246 -0.828448857744019
1800000000.0 0.15072343984849468 -0.8281522537297975
1805000000.0 0.14757933967351738 -0.8279914632163756
1810000000.0 0.14421733666245162 -0.8278387761340633
1815000000.0 0.14115403827181688 -0.8278199207716269
1820000000.0 0.1379390419185231 -0.8279599182022152
1825000000.0 0.1346693423412375 -0.8278202433801473
1830000000.0 0.13167550753925805 -0.8278631686432892
1835000000.0 0.1285037979571282 -0.8276960009321502
1840000000.0 0.1252228018844894 -0.8273829104448897
1845000000.0 0.1222340714885167 -0.8273272827912257
1850000000.0 0.11879786526632356 -0.8271665124204173
1855000000.0 0.11569655921146 -0.8270308796660888
1860000000.0 0.11225799044283738 -0.826915724418318
1865000000.0 0.10910150131794187 -0.8262523360977347
1870000000.0 0.1054535255658652 -0.8261101074973395
1875000000.0 0.10191789369393511 -0.8259856845227805
1880000000.0 0.09837497365217425 -0.8258061629821764
1885000000.0 0.09477627695458499 -0.8257116187075489
1890000000.0 0.0915489485593253 -0.8258089539517539
1895000000.0 0.08820974679811677 -0.8256994449479677
1900000000.0 0.0848982558177458 -0.8254858565129735
1905000000.0 0.08150560085786368 -0.8250949380871028
1910000000.0 0.07804325824003812 -0.8246104455906322
1915000000.0 0.07441569714332258 -0.8242873907486348
1920000000.0 0.07096212948610868 -0.8241534463326733
1925000000.0 0.06750317915126132 -0.8239410624762356
1930000000.0 0.06400130776244996 -0.8236807499633679
1935000000.0 0.06043271429196809 -0.8235732894689657
1940000000.0 0.05691122938575609 -0.8232751854207007
1945000000.0 0.05344621187042794 -0.8230199931519004
1950000000.0 0.04984213619525761 -0.8227646739293805
1955000000.0 0.04632657999831577 -0.8226307092089999
1960000000.0 0.04267392947945041 -0.822270061104334
1965000000.0 0.0390369213709529 -0.821990984840659
1970000000.0 0.03549742708274731 -0.8218657456657368
1975000000.0 0.03185294337016298 -0.821720245264741
1980000000.0 0.02811326562629426 -0.8214232766172846
1985000000.0 0.024715687574400957 -0.8211330613963537
1990000000.0 0.02105998069400985 -0.8208856915049509
1995000000.0 0.017485280790897176 -0.8207223273969337
2000000000.0 0.013762044484837827 -0.8205418493092509
2005000000.0 0.010289857078370051 -0.8202711591990678
2010000000.0 0.006774206617794172 -0.8201374225344973
2015000000.0 0.0032246182835761177 -0.8199191230557685
2020000000.0 -0.0003681124360936114 -0.8197381023475294
2025000000.0 -0.0038547157184746364 -0.8194748149794183
2030000000.0 -0.007449877774801513 -0.8193924347293445
2035000000.0 -0.0109276149319831 -0.819277072327855
2040000000.0 -0.014421509346460028 -0.8190493096078939
2045000000.0 -0.01792896448021067 -0.8189483150668251
2050000000.0 -0.02130743222693351 -0.8186024570010374
2055000000.0 -0.024967314521633206 -0.8186251864459462
2060000000.0 -0.02824432137415381 -0.8184128828594558
2065000000.0 -0.03174291681733855 -0.8183080680730287
2070000000.0 -0.0350814159347077 -0.8180017450665577
2075000000.0 -0.03860667641678257 -0.8180899472051966
2080000000.0 -0.04208670973951931 -0.8181167775194751
2085000000.0 -0.045445724004076864 -0.8180669399359445
2090000000.0 -0.04864475387171613 -0.8181749699932441
2095000000.0 -0.05209156849250845 -0.8182896075900846
2100000000.0 -0.05540971351337089 -0.8182736055905085
2105000000.0 -0.05870020256482994 -0.8183422620157454
2110000000.0 -0.06213843526124731 -0.8185134545399572
2115000000.0 -0.06539898175181966 -0.8185340313187597
2120000000.0 -0.06870389185971319 -0.8186907640983218
2125000000.0 -0.07213501479039496 -0.818588117214311
2130000000.0 -0.07542795809592366 -0.8186408037507265
2135000000.0 -0.07884658044719783 -0.8189166117752686
2140000000.0 -0.08211734056707656 -0.819062810361551
2145000000.0 -0.08553262328157225 -0.8191324169898205
2150000000.0 -0.08902621148227975 -0.8194039134644414
2155000000.0 -0.09233182058617423 -0.8192974512689624
2160000000.0 -0.09566088039245217 -0.8194148256352355
2165000000.0 -0.09905022883593585 -0.8195816662958998
2170000000.0 -0.10231621021935408 -0.8198290634026495
2175000000.0 -0.10584494716368048 -0.8199145075002044
2180000000.0 -0.10912625053082269 -0.819986271765801
2185000000.0 -0.11259556723804781 -0.8200788346498683
2190000000.0 -0.1160454944818313 -0.8203177875443612
2195000000.0 -0.11921200097835838 -0.8203594432999348
2200000000.0 -0.12255581319133461 -0.8204208744985159
2205000000.0 -0.12587098821264953 -0.820682313543175
2210000000.0 -0.12919159313436698 -0.8209213331635232
2215000000.0 -0.13242605968952828 -0.8210470254380522
2220000000.0 -0.13584579362131688 -0.8211178755019134
2225000000.0 -0.13908962534984937 -0.8212855622503148
2230000000.0 -0.14257045287564132 -0.8214610893654575
2235000000.0 -0.14567791626329946 -0.8216763061570506
2240000000.0 -0.148868605633262 -0.8218298379142097
2245000000.0 -0.1520582443851961 -0.8220231696547126
2250000000.0 -0.15521220703624156 -0.8223263246927969
2255000000.0 -0.1582117960323385 -0.8226091376256969
2260000000.0 -0.16131996718916664 -0.8225011649945537
2265000000.0 -0.1643264152080547 -0.8227785794899134
2270000000.0 -0.16758180060698302 -0.8227875228077527
2275000000.0 -0.1704319165163662 -0.823164457641798
2280000000.0 -0.17345647811697246 -0.8233887399418788
2285000000.0 -0.17652647741956545 -0.8235795415297642
2290000000.0 -0.17948798610582745 -0.823716729323582
2295000000.0 -0.18235657032238706 -0.823847944902304
2300000000.0 -0.1855490167897842 -0.8238541059718157
2305000000.0 -0.18825078193609213 -0.8241867555737478
2310000000.0 -0.19113563740045242 -0.8241232868455092
2315000000.0 -0.19408662481216424 -0.8245180453785377
2320000000.0 -0.19694924900309219 -0.8248014979711015
2325000000.0 -0.19986341499049806 -0.8249748496619814
2330000000.0 -0.2026485688602896 -0.8249847221733181
2335000000.0 -0.20564981677094532 -0.8253448966121653
2340000000.0 -0.20841546866176255 -0.8256009931677426
2345000000.0 -0.21120590327921623 -0.8260140143820418
2350000000.0 -0.2139271638670124 -0.8261605164143908
2355000000.0 -0.2166808737350125 -0.8267238696946088
2360000000.0 -0.21943836941038247 -0.8269934519194304
2365000000.0 -0.2222620640734788 -0.8273999035278802
2370000000.0 -0.22484901392429904 -0.827910343475237
2375000000.0 -0.22753596233852053 -0.8282461997840891
2380000000.0 -0.23019190921374033 -0.8287010807179144
2385000000.0 -0.2329324115199397 -0.8293539094097783
2390000000.0 -0.23545338149168685 -0.8298252787475877
2395000000.0 -0.23796639833156585 -0.8303775288260214
2400000000.0 -0.2406173936934814 -0.8311329033725058
2405000000.0 -0.24294573058643132 -0.8317190240874582
2410000000.0 -0.24546561402240502 -0.8324354535902198
2415000000.0 -0.2481127449453172 -0.8331099785344053
2420000000.0 -0.2503913512345093 -0.8337109246561689
2425000000.0 -0.2529367984023405 -0.8344063895404041
2430000000.0 -0.255299322351955 -0.8348770781766864
2435000000.0 -0.2575925611572751 -0.8358258882102355
2440000000.0 -0.26010654613408496 -0.8365948174032859
2445000000.0 -0.2624025133376876 -0.8372166256459975
2450000000.0 -0.2649536886972798 -0.8378767463569212
2455000000.0 -0.2673091351223411 -0.8386886273977905
2460000000.0 -0.26975845771825985 -0.839616012355273
2465000000.0 -0.27203537025381097 -0.8402423842425549
2470000000.0 -0.2742406295902255 -0.8410652544077843
2475000000.0 -0.27652648579917727 -0.8420442611978217
2480000000.0 -0.2787418256921612 -0.8427706104006708
2485000000.0 -0.2809325386843 -0.8436813103227135
2490000000.0 -0.28327051059041797 -0.8443773270251294
2495000000.0 -0.28526108855349436 -0.8452250879811654
2500000000.0 -0.2876364488360016 -0.8460050696528922
2505000000.0 -0.28959346251652945 -0.846659731891246
2510000000.0 -0.29189800919849745 -0.8473639973488445
2515000000.0 -0.29396440044603733 -0.8482210775517586
2520000000.0 -0.2959878967645356 -0.8488099929421068
2525000000.0 -0.2981242250869799 -0.8494342521759132
2530000000.0 -0.30024207608125214 -0.8502529228793378
2535000000.0 -0.30222872845219056 -0.8508362731057559
2540000000.0 -0.30432838916822785 -0.8514313121095023
2545000000.0 -0.30633546715784155 -0.8520316498071061
2550000000.0 -0.30869566811371174 -0.8526068879964428
2555000000.0 -0.3106168296432717 -0.8532509173574387
2560000000.0 -0.312644082015207 -0.8538150175722643
2565000000.0 -0.31472498440386065 -0.854564211779046
2570000000.0 -0.3168455070490408 -0.8552115881634101
2575000000.0 -0.31884746101574085 -0.8559307314184393
2580000000.0 -0.3209199416499651 -0.8566735532851618
2585000000.0 -0.3228327639530175 -0.8574826793861562
2590000000.0 -0.3249446142233454 -0.8581683402438492
2595000000.0 -0.326615165300812 -0.8589334472301697
2600000000.0 -0.328664179532028 -0.8597069205880067
2605000000.0 -0.33058355816336255 -0.8607060295331648
2610000000.0 -0.3324486696613886 -0.8612862664333711
2615000000.0 -0.3341275528853655 -0.8621721300878088
2620000000.0 -0.3359705582403377 -0.8629961155386859
2625000000.0 -0.3375963085060486 -0.8636596823820538
2630000000.0 -0.33938356302484723 -0.8644850035835814
2635000000.0 -0.34091154507548393 -0.8653817800228384
2640000000.0 -0.3424649775023632 -0.8661195105158944
2645000000.0 -0.3439404385077018 -0.8669128371921514
2650000000.0 -0.3454435884466147 -0.8679105591512225
2655000000.0 -0.3471353550456915 -0.868508495160954
2660000000.0 -0.3484510793207754 -0.8693786787002041
2665000000.0 -0.3497126133532673 -0.8700618037581415
2670000000.0 -0.3509487398066883 -0.8709877272868766
2675000000.0 -0.3524315578791235 -0.8714484983255667
2680000000.0 -0.3537381604727462 -0.8720679256152861
2685000000.0 -0.3553076686301549 -0.8728079658466249
2690000000.0 -0.3567497143032909 -0.8733656390933433
2695000000.0 -0.35840621315038884 -0.8740899598473642
2700000000.0 -0.35984723703083277 -0.8747439408584513
2705000000.0 -0.3614515591938038 -0.8756019961904078
2710000000.0 -0.3629067886287427 -0.8763532996582352
2715000000.0 -0.36454527416853216 -0.8773116349956364
2720000000.0 -0.36597468959684054 -0.8783373960843588
2725000000.0 -0.36724793105309866 -0.8795613784047129
2730000000.0 -0.36857353292695455 -0.880862028730681
2735000000.0 -0.369798675774182 -0.8820431024449007
2740000000.0 -0.3708184637365721 -0.8830887056655133
2745000000.0 -0.37191053917668604 -0.884217793645548
2750000000.0 -0.3728773912299998 -0.8855461281922766
2755000000.0 -0.3737266750870357 -0.8865193178558477
2760000000.0 -0.3744455565688955 -0.8876215945841108
2765000000.0 -0.37533398334624285 -0.8884772973225569
2770000000.0 -0.3757288231785851 -0.8894464622759873
2775000000.0 -0.37635536725347496 -0.8904033431200316
2780000000.0 -0.3769168344841575 -0.8914236463223469
2785000000.0 -0.37736105129809805 -0.892235147176351
2790000000.0 -0.37770661938212835 -0.8931512324855247
2795000000.0 -0.3781092714485572 -0.8939447942083804
2800000000.0 -0.37840234551132823 -0.8947710151143612
2805000000.0 -0.378776091561927 -0.895573253975571
2810000000.0 -0.37925487460025403 -0.896187687397386
2815000000.0 -0.37959797349796076 -0.8966266667996345
2820000000.0 -0.3798666860901545 -0.897263471207569
2825000000.0 -0.3806472340543894 -0.8977353626869413
2830000000.0 -0.3810969407163107 -0.898120857850334
2835000000.0 -0.38135025783738985 -0.8986497981118732
2840000000.0 -0.38195290243589347 -0.8992764588016129
2845000000.0 -0.3825007278661097 -0.8998878791810523
2850000000.0 -0.38274595676516937 -0.9005756220479672
2855000000.0 -0.3836355908492221 -0.9009152932173413
2860000000.0 -0.3842287585758092 -0.9012957391788088
2865000000.0 -0.38450971567238357 -0.9019954595804965
2870000000.0 -0.38524250876727334 -0.9028027706173408
2875000000.0 -0.3855707300468865 -0.9035419778640107
2880000000.0 -0.3856041886391633 -0.9044631786080394
2885000000.0 -0.38582005386519597 -0.9053148347883189
2890000000.0 -0.3856272395554106 -0.9063073369460931
2895000000.0 -0.38542702800262874 -0.9071866866050493
2900000000.0 -0.3849238228288166 -0.9076372980946151
2905000000.0 -0.3845362559279749 -0.9083758877855541
2910000000.0 -0.38362028784151064 -0.9086123653563755
2915000000.0 -0.3832217058533159 -0.9085302228300491
2920000000.0 -0.38284294965743143 -0.9084770888642683
2925000000.0 -0.38237314352564916 -0.9085335877365626
2930000000.0 -0.38152015869279104 -0.9083980155394998
2935000000.0 -0.38152904355329076 -0.9083792477929212
2940000000.0 -0.3812147042874841 -0.9080735206242065
2945000000.0 -0.3812989980834789 -0.9079777399660858
2950000000.0 -0.38131193507597 -0.9076460677585495
2955000000.0 -0.3813002283148814 -0.907392272275437
2960000000.0 -0.3815255129471984 -0.9072834773387187
2965000000.0 -0.38188017408138536 -0.9073976200752578
2970000000.0 -0.3819236793806138 -0.9075308098671393
2975000000.0 -0.38211401907420117 -0.9074649155191565
2980000000.0 -0.38230431322689873 -0.907610556881579
2985000000.0 -0.38280902974757103 -0.9080916540481887
2990000000.0 -0.38302458808646783 -0.9085573222932811
2995000000.0 -0.3830416268373982 -0.9093028191744787
3000000000.0 -0.38297456304992955 -0.9102278819249667
3005000000.0 -0.3798835741924174 -0.9077742336459556
3010000000.0 -0.3803124189054598 -0.9079785750598214
3015000000.0 -0.3805645615877321 -0.9084662861046386
3020000000.0 -0.3810298021973037 -0.9088013598494963
3025000000.0 -0.38167416767717055 -0.9096432954801703
3030000000.0 -0.3814795511759113 -0.9107936451205033
3035000000.0 -0.3813295751932676 -0.9118232033978785
3040000000.0 -0.3808845163193918 -0.9133383374497611
3045000000.0 -0.38001881704420126 -0.9143203125863099
3050000000.0 -0.3791920960850056 -0.9155543353706201
3055000000.0 -0.3781380338289285 -0.9166639747234507
3060000000.0 -0.37645236901887874 -0.9178327904777831
3065000000.0 -0.37440722997639264 -0.9189078011074124
3070000000.0 -0.37243122073768414 -0.9193495047223472
3075000000.0 -0.37059350448191863 -0.9195843028190368
3080000000.0 -0.36849106780081975 -0.9196756674809451
3085000000.0 -0.36617249897127 -0.9198959595245088
3090000000.0 -0.363646964618139 -0.9194922304635544
3095000000.0 -0.3614401861093812 -0.9184894817185704
3100000000.0 -0.3592975411179997 -0.9171371105801909
3105000000.0 -0.3578350580809438 -0.9158491003735099
3110000000.0 -0.3559550108728952 -0.914689594593678
3115000000.0 -0.3540247704040506 -0.9130038507003989
3120000000.0 -0.3529785352311195 -0.9112242419303463
3125000000.0 -0.35208230465547785 -0.9092799681289226
3130000000.0 -0.35143520395825345 -0.9079507117131138
3135000000.0 -0.35053912700706197 -0.9062657392468781
3140000000.0 -0.3504868298655225 -0.9045242900175259
3145000000.0 -0.34991419626757375 -0.902997243705228
3150000000.0 -0.35019369155888586 -0.9013910909443293
3155000000.0 -0.350168466542802 -0.9007740693422921
3160000000.0 -0.34984809068657624 -0.8996379858441556
3165000000.0 -0.3507300695308156 -0.8991882391833235
3170000000.0 -0.3503176508612287 -0.8983736682869241
3175000000.0 -0.3507468278379891 -0.8978734218630344
3180000000.0 -0.3512538482496952 -0.8972972378515504
3185000000.0 -0.3504535584423307 -0.8977199160446464
3190000000.0 -0.3498248027063712 -0.8981258781709649
3195000000.0 -0.34902831116163474 -0.8985261067881677
3200000000.0 -0.3476697701809862 -0.8985186535240381
3205000000.0 -0.3459132612110784 -0.8988832145868911
3210000000.0 -0.3436877216541752 -0.8990525702032391
3215000000.0 -0.34178671752214773 -0.8991783045801359
3220000000.0 -0.33895885314064633 -0.897921970426025
3225000000.0 -0.33669550124719144 -0.8963207069126523
3230000000.0 -0.33467409598581693 -0.8940947937889049
3235000000.0 -0.3332450819602676 -0.8918893334147812
3240000000.0 -0.33207864538439613 -0.8898517265372768
3245000000.0 -0.33138336236280025 -0.8874477799370111
3250000000.0 -0.32999071942779773 -0.8855930374208093
3255000000.0 -0.32941884703857666 -0.8837403281142865
3260000000.0 -0.3288874085764441 -0.881581990970217
3265000000.0 -0.32826397506871696 -0.8797214134968068
3270000000.0 -0.3274269550492731 -0.8777802696940514
3275000000.0 -0.32703445687573135 -0.8759472434257786
3280000000.0 -0.32662497477107116 -0.8742411007508547
3285000000.0 -0.3261281069029257 -0.8723235940073727
3290000000.0 -0.3259649241535237 -0.8702827289439332
3295000000.0 -0.32577058497205674 -0.8689565965243694
3300000000.0 -0.3256631317483858 -0.8670456922219689
3305000000.0 -0.325555028975923 -0.8654994461605572
3310000000.0 -0.3252410812828482 -0.8639026428560282
3315000000.0 -0.32514499883274184 -0.8626912202017394
3320000000.0 -0.3248393966514843 -0.8612202577277501
3325000000.0 -0.32477576464766533 -0.8595127680604862
3330000000.0 -0.32439290391811654 -0.858330264513049
3335000000.0 -0.3239037237320728 -0.8570617871016769
3340000000.0 -0.32369015629651743 -0.8562402124223668
3345000000.0 -0.3228842064079951 -0.8551073757704268
3350000000.0 -0.3224212519005393 -0.8538213860949914
3355000000.0 -0.3214325608056172 -0.8526415142439122
3360000000.0 -0.32061160724634347 -0.8515127553851651
3365000000.0 -0.31982599326984673 -0.8499617450275228
3370000000.0 -0.31851175415547855 -0.849054565640318
3375000000.0 -0.3172845395919979 -0.8476518000572681
3380000000.0 -0.3161901415058252 -0.8457496522327492
3385000000.0 -0.31480743684330564 -0.8438344509062841
3390000000.0 -0.3139616783504082 -0.8422212466482133
3395000000.0 -0.3125910296043129 -0.8403257565875145
3400000000.0 -0.3115508620608575 -0.8382017996422653
3405000000.0 -0.3098492014233191 -0.8363489711019055
3410000000.0 -0.30871672801184996 -0.8337964011232564
3415000000.0 -0.307642197753161 -0.8312597352971381
3420000000.0 -0.30669665935248575 -0.828659670917763
3425000000.0 -0.30624782922384025 -0.8258747525998781
3430000000.0 -0.3049413718204106 -0.82331160664416
3435000000.0 -0.30464343143982503 -0.8203670892218546
3440000000.0 -0.303996333105523 -0.8180546820263612
3445000000.0 -0.303347641036601 -0.8143093470908908
3450000000.0 -0.3030004428166948 -0.8116993615652779
3455000000.0 -0.302684392393625 -0.8089983832140408
3460000000.0 -0.30288611698483064 -0.8061573800671405
3465000000.0 -0.3028578130845421 -0.8031192405537477
3470000000.0 -0.3032436723817544 -0.8004562244515664
3475000000.0 -0.3037323682335883 -0.7979460307296309
3480000000.0 -0.30404787865374483 -0.7953340414017936
3485000000.0 -0.3052903271004217 -0.7924581312240904
3490000000.0 -0.3059026255357712 -0.7907476831295794
3495000000.0 -0.3064403917426144 -0.7888198918782688
3500000000.0 -0.3070300564712503 -0.7869690098764226
3505000000.0 -0.3072011620424103 -0.785345189920935
3510000000.0 -0.30754498535778907 -0.7840763819738108
3515000000.0 -0.30757501573186385 -0.782562279899697
3520000000.0 -0.30757381822431035 -0.781379637946402
3525000000.0 -0.3069299255871982 -0.7801364994692557
3530000000.0 -0.3063360216584297 -0.779304595430259
3535000000.0 -0.3049715048476802 -0.7780322302165267
3540000000.0 -0.30332769187882835 -0.7762260773479702
3545000000.0 -0.3018960099138372 -0.7741376593819799
3550000000.0 -0.29972629374642823 -0.7712215848424759
3555000000.0 -0.29760245940002833 -0.7679136757182938
3560000000.0 -0.2959925986947795 -0.7635762465749283
3565000000.0 -0.2945605709450922 -0.7592732433277005
3570000000.0 -0.2934709825589846 -0.7535648524405139
3575000000.0 -0.2930334253853977 -0.7470317056975724
3580000000.0 -0.2940263865433542 -0.7411868825189822
3585000000.0 -0.29674690230008477 -0.7356896702039751
3590000000.0 -0.2999773125034959 -0.7306529621912335
3595000000.0 -0.3043674059040004 -0.7269694416126561
3600000000.0 -0.3086082071537725 -0.7244168270568405
3605000000.0 -0.31238174545337183 -0.7227690490374956
3610000000.0 -0.3161132076418509 -0.7223057183270213
3615000000.0 -0.31800926864203904 -0.7227875717436008
3620000000.0 -0.3194951546764965 -0.7228876791750533
3625000000.0 -0.32109423176884944 -0.7227639273579236
3630000000.0 -0.320458131240358 -0.7232020383358132
3635000000.0 -0.3200308409906007 -0.72268550882485
3640000000.0 -0.3191770732746282 -0.7212156098027973
3645000000.0 -0.3181527939241373 -0.7197991224248262
3650000000.0 -0.3176804082729117 -0.7176928867153415
3655000000.0 -0.3170948921163286 -0.7147131639858307
3660000000.0 -0.31671822790569015 -0.7121133914275586
3665000000.0 -0.31680514345894845 -0.7094459734071266
3670000000.0 -0.3157476614071789 -0.7067749548895214
3675000000.0 -0.3165271636379687 -0.7041852929714677
3680000000.0 -0.3159929274859198 -0.7012360631361079
3685000000.0 -0.31544101231599186 -0.6980476027172965
3690000000.0 -0.31568725817277055 -0.6952135909638627
3695000000.0 -0.31598689708651334 -0.6912093514205544
3700000000.0 -0.3159028183921223 -0.6876986013723243
3705000000.0 -0.31601846546987955 -0.6837733216578905
3710000000.0 -0.3165113659777998 -0.6792174288322783
3715000000.0 -0.31737509188929575 -0.6751387383696796
3720000000.0 -0.31875061751353834 -0.6705616086303372
3725000000.0 -0.3207351420898008 -0.6656285403203737
3730000000.0 -0.32328088374748964 -0.6596689059742262
3735000000.0 -0.326850039513608 -0.6552454424405327
3740000000.0 -0.3314053004457003 -0.6516872634869277
3745000000.0 -0.3359484448853427 -0.6485774373400391
3750000000.0 -0.34093682311703133 -0.6473559122936348
3755000000.0 -0.3456135599348364 -0.6469546334664393
3760000000.0 -0.34899996166986547 -0.6478833271219671
3765000000.0 -0.3514980153683777 -0.6494745760583216
3770000000.0 -0.3520997050994345 -0.6514339591807463
3775000000.0 -0.35059352207912026 -0.6523009139429328
3780000000.0 -0.34839868813898334 -0.6535052577379771
3785000000.0 -0.3454885080396926 -0.6509430422234443
3790000000.0 -0.3435519884713515 -0.6469432676767574
3795000000.0 -0.34312611319007147 -0.6420253380852616
3800000000.0 -0.34346424558677463 -0.6374178191098498
3805000000.0 -0.3448300249348152 -0.6325196623647875
3810000000.0 -0.3466831592412444 -0.6281746598309891
3815000000.0 -0.34886865085345237 -0.6242879192565776
3820000000.0 -0.3511519722562443 -0.6206930316048008
3825000000.0 -0.353898005234108 -0.6171600282729743
3830000000.0 -0.3565640115266843 -0.6142441494338376
3835000000.0 -0.3620777300358514 -0.6140973290089566
3840000000.0 -0.3637826067738446 -0.6120821127823566
3845000000.0 -0.36573233258989474 -0.6099206262192639
3850000000.0 -0.36726833415627197 -0.6078779713899093
3855000000.0 -0.3688412337922947 -0.6056966224382452
3860000000.0 -0.37053476020365395 -0.6036540758796771
3865000000.0 -0.37215155810403977 -0.601356181778448
3870000000.0 -0.3739353271056987 -0.5992377089249492
3875000000.0 -0.37560757635943587 -0.5971658504164546
3880000000.0 -0.377329512290923 -0.5950476234629966
3885000000.0 -0.37917163953863153 -0.5927182016459446
3890000000.0 -0.3808535922652213 -0.5904412760550494
3895000000.0 -0.3828209427645093 -0.588360429219962
3900000000.0 -0.38475641891170353 -0.5860333232736166
3905000000.0 -0.3865727061052809 -0.5840289569920418
3910000000.0 -0.3886182915892944 -0.5817187679995084
3915000000.0 -0.3903957150795202 -0.5795969967298098
3920000000.0 -0.39237060198812784 -0.5774181085141002
3925000000.0 -0.39438653069474966 -0.5754265051808961
3930000000.0 -0.3963125123888511 -0.5733910098077021
3935000000.0 -0.39827476159680536 -0.571341237444044
3940000000.0 -0.40032830389741175 -0.5691473908177904
3945000000.0 -0.4022388060044763 -0.5671437085263489
3950000000.0 -0.4046005124441509 -0.5652518727535316
3955000000.0 -0.4065513910789933 -0.5632909064847123
3960000000.0 -0.4084652693898639 -0.561215737828244
3965000000.0 -0.4107743897940797 -0.5593175487951325
3970000000.0 -0.4126869333061309 -0.5574657261254926
3975000000.0 -0.4148894143001793 -0.5557983901390932
3980000000.0 -0.4168937294539112 -0.5539227733151465
3985000000.0 -0.4190839299803765 -0.5520338933311716
3990000000.0 -0.4211428692110981 -0.5503300138159305
3995000000.0 -0.4232102236521343 -0.5484923487254761
4000000000.0 -0.42545063357676416 -0.5467822229913284
4005000000.0 -0.42742171153582065 -0.5450396828151594
4010000000.0 -0.4294262314374334 -0.5433241369843708
4015000000.0 -0.4318607325386291 -0.5416167334215515
4020000000.0 -0.43391984084027024 -0.5400209861610716
4025000000.0 -0.43588823525796866 -0.5382155811061595
4030000000.0 -0.43807151579394304 -0.5366325038967824
4035000000.0 -0.4403352628500547 -0.5350852936478063
4040000000.0 -0.4423729558293899 -0.5334157324020015
4045000000.0 -0.4446840336700032 -0.5318274226217478
4050000000.0 -0.4467308071014785 -0.5303252142160052
4055000000.0 -0.44909633288298534 -0.5287586456351354
4060000000.0 -0.4511334940413161 -0.5271751797840765
4065000000.0 -0.45337038418125397 -0.5257591316830146
4070000000.0 -0.45563650638122205 -0.5242652767248086
4075000000.0 -0.45784370811733893 -0.5227115280517759
4080000000.0 -0.4601329431785022 -0.521381801107822
4085000000.0 -0.46243828671687104 -0.5200070111876749
4090000000.0 -0.464577133042644 -0.518536988011933
4095000000.0 -0.466908522011218 -0.5172879714479675
4100000000.0 -0.4691077632179516 -0.5158005716089635
4105000000.0 -0.47139026874261114 -0.5146402695058951
4110000000.0 -0.4738857985191945 -0.5132507236634195
4115000000.0 -0.4758382191340159 -0.512140663167408
4120000000.0 -0.47816106345183096 -0.5106665848708806
4125000000.0 -0.48038335344105876 -0.5094763081118722
4130000000.0 -0.482692622280929 -0.5084277423609668
4135000000.0 -0.48504932835531345 -0.507117047079899
4140000000.0 -0.4871881985953625 -0.5061368013723009
4145000000.0 -0.48952411246870653 -0.5048641429006427
4150000000.0 -0.4918545821236807 -0.5038305014660183
4155000000.0 -0.4941891673044965 -0.502614422709564
4160000000.0 -0.4963406294492232 -0.5015747021938488
4165000000.0 -0.4986399501039885 -0.5006927475050569
4170000000.0 -0.5009160295802136 -0.4995491668809615
4175000000.0 -0.503150150689191 -0.4987749375625675
4180000000.0 -0.5057234700745439 -0.4975293132036543
4185000000.0 -0.5077929724251536 -0.4964030978162946
4190000000.0 -0.509969502512147 -0.49559387489502826
4195000000.0 -0.5124863860733034 -0.494715368418757
4200000000.0 -0.5145841536467247 -0.49394301577802363
4205000000.0 -0.5168637665735418 -0.49280915122796654
4210000000.0 -0.519108893204867 -0.4920663433672957
4215000000.0 -0.521564862917713 -0.49113783856245014
4220000000.0 -0.5237869992787685 -0.4903385714547993
4225000000.0 -0.5260752077705949 -0.489495523570284
4230000000.0 -0.5283784627868692 -0.4886765613000573
4235000000.0 -0.5306347390066644 -0.4877801577143653
4240000000.0 -0.5326984684937578 -0.48697350555542823
4245000000.0 -0.5349529827348944 -0.4861144727017794
4250000000.0 -0.5372166043462003 -0.4856054500806162
4255000000.0 -0.5395775416850993 -0.4848204908154615
4260000000.0 -0.541800339556263 -0.4843134098528884
4265000000.0 -0.5439024495110363 -0.48369358868755474
4270000000.0 -0.5460962672249702 -0.48293328605233815
4275000000.0 -0.5481478833188704 -0.4820695255202164
4280000000.0 -0.550387156935513 -0.48147277729919163
4285000000.0 -0.5524597010729619 -0.4808176731731899
4290000000.0 -0.554909206446594 -0.48022382529592444
4295000000.0 -0.5570848393466631 -0.47934104369181363
4300000000.0 -0.559252215100856 -0.47874074138794964
4305000000.0 -0.5613550752804838 -0.4779478538383637
4310000000.0 -0.5636733655396382 -0.47757858496868905
4315000000.0 -0.5660592018563853 -0.4767486495315123
4320000000.0 -0.5684139885711628 -0.47628135014166256
4325000000.0 -0.5707810746523124 -0.47565469201452376
4330000000.0 -0.5732920142450353 -0.4752315697335938
4335000000.0 -0.5756694618398047 -0.47484623836635653
4340000000.0 -0.5778708544695752 -0.4745601946960172
4345000000.0 -0.5801886768746993 -0.4742937603176214
4350000000.0 -0.5826050662621334 -0.4740720412907669
4355000000.0 -0.5850138346424087 -0.4739026940089676
4360000000.0 -0.5872807160885308 -0.4737063674323693
4365000000.0 -0.5894600699398792 -0.4737259273391493
4370000000.0 -0.591674485680813 -0.4735716143246823
4375000000.0 -0.5939717519511734 -0.4737300475501239
4380000000.0 -0.5958160826699013 -0.47379488067990033
4385000000.0 -0.5979533266078436 -0.4734521216711586
4390000000.0 -0.5998958019910322 -0.4736573887186803
4395000000.0 -0.601825768815147 -0.4737373029844422
4400000000.0 -0.6037105383349867 -0.4735058325299722
4405000000.0 -0.6054233434573307 -0.47352631318891863
4410000000.0 -0.607275455825152 -0.4735664799302037
4415000000.0 -0.6092499084311706 -0.4735101648882463
4420000000.0 -0.6112397925836871 -0.4731923384087097
4425000000.0 -0.6132597900019726 -0.4729963492083645
4430000000.0 -0.6151256956945304 -0.47301870506899857
4435000000.0 -0.6171677543453592 -0.472723994133308
4440000000.0 -0.6194308667604206 -0.4726615262672335
4445000000.0 -0.6214551733386408 -0.4725780597916759
4450000000.0 -0.623977514912555 -0.47274190344300254
4455000000.0 -0.6259400264711843 -0.4730155418786622
4460000000.0 -0.6283607621047295 -0.47323003235540334
4465000000.0 -0.6309489718460656 -0.47333255266761876
4470000000.0 -0.6327581513602816 -0.47393539435269577
4475000000.0 -0.6350591415958502 -0.47433013523329104
4480000000.0 -0.6373231685680816 -0.4751804238265939
4485000000.0 -0.6392017119727432 -0.4758900009676787
4490000000.0 -0.6411073154704906 -0.4765544685129466
4495000000.0 -0.6426672673616692 -0.47732078870583067
4500000000.0 -0.6442650584334427 -0.4778309838488691
4505000000.0 -0.6459149237526708 -0.478712398187417
4510000000.0 -0.6472583141303616 -0.4793414697527074
4515000000.0 -0.6486678258037847 -0.4799080376596394
4520000000.0 -0.6497729208064433 -0.4803842973090524
4525000000.0 -0.6515443919740121 -0.48075714731276903
4530000000.0 -0.6526728127966075 -0.4807894861619481
4535000000.0 -0.6544916678748096 -0.48130820158082593
4540000000.0 -0.655971339154379 -0.4816677010945457
4545000000.0 -0.6574880600377735 -0.4819952689881397
4550000000.0 -0.659233763061841 -0.48258582071459466
4555000000.0 -0.660817537045189 -0.48308409890701903
4560000000.0 -0.6625406285897458 -0.4836827698798903
4565000000.0 -0.6639841833823503 -0.48417902653554695
4570000000.0 -0.6657315962943486 -0.4845329687980995
4575000000.0 -0.6673730244225993 -0.48503547905039035
4580000000.0 -0.6689354274549325 -0.48562888814135213
4585000000.0 -0.6705129211712161 -0.4861463839319759
4590000000.0 -0.6720497579165148 -0.4869947530527082
4595000000.0 -0.6738957429363949 -0.4875931845627717
4600000000.0 -0.6754083323912004 -0.48821536344217137
4605000000.0 -0.6771745139405803 -0.48902883399946956
4610000000.0 -0.6788259608712959 -0.4895353767191461
4615000000.0 -0.6802991810160565 -0.4906659974299262
4620000000.0 -0.681945577245276 -0.4917457210697652
4625000000.0 -0.6835475604136192 -0.4925106803403491
4630000000.0 -0.685005469605261 -0.493557775157451
4635000000.0 -0.6863575461077657 -0.49450590939727507
4640000000.0 -0.6877204631946624 -0.4955074086557039
4645000000.0 -0.6890848418741475 -0.49685691931279014
4650000000.0 -0.6903710645310157 -0.49773164941074066
4655000000.0 -0.6917382859563954 -0.4990438954072143
4660000000.0 -0.6928706957720776 -0.5002426285231174
4665000000.0 -0.6944992202926307 -0.5015409785363841
4670000000.0 -0.6955044174105152 -0.502727870413654
4675000000.0 -0.6966027882291352 -0.5038259129946934
4680000000.0 -0.697665518633127 -0.5051438477214536
4685000000.0 -0.6987284008518004 -0.5063532839471322
4690000000.0 -0.6996644243241263 -0.5074454197710287
4695000000.0 -0.7007116415156471 -0.5083702119412211
4700000000.0 -0.701879340827299 -0.5095469923326787
4705000000.0 -0.7029180250465946 -0.5106325128214095
4710000000.0 -0.7036682771757635 -0.5114907620687779
4715000000.0 -0.7043208412695602 -0.5125298580681729
4720000000.0 -0.7054881967210538 -0.5133651916011858
4725000000.0 -0.7066156263780381 -0.5142614259462185
4730000000.0 -0.7077045716814805 -0.51565696191012
4735000000.0 -0.7086071743763992 -0.5162739599903731
4740000000.0 -0.7099315038090299 -0.5171845880709146
4745000000.0 -0.7108561655524707 -0.5187942393823111
4750000000.0 -0.7127269471401324 -0.5193136123623586
4755000000.0 -0.7135402883920273 -0.5204901659892601
4760000000.0 -0.7146681857115874 -0.5220098968015078
4765000000.0 -0.7158771021130805 -0.5236181812753302
4770000000.0 -0.7171305142431617 -0.5244869805975216
4775000000.0 -0.7181250819428465 -0.526269159157613
4780000000.0 -0.7186400704332762 -0.5285215078926945
4785000000.0 -0.7195800153074914 -0.5301863956682833
4790000000.0 -0.720199670914716 -0.5313955179826411
4795000000.0 -0.7205160438621687 -0.5331922237837231
4800000000.0 -0.7207531855348343 -0.5348347343706072
4805000000.0 -0.7209484708839864 -0.5361863092763959
4810000000.0 -0.7210245081255798 -0.5369422475899743
4815000000.0 -0.7213855287340879 -0.5388063904519815
4820000000.0 -0.7215846868383393 -0.5400573670914056
4825000000.0 -0.7224630047629526 -0.54039146081898
4830000000.0 -0.7223030141615446 -0.5421036874379235
4835000000.0 -0.7225219529372298 -0.5425162406711892
4840000000.0 -0.7229480390750883 -0.5434992543259344
4845000000.0 -0.7233895574177762 -0.5447264584332604
4850000000.0 -0.7243236984405838 -0.5455588803602657
4855000000.0 -0.7241912470817082 -0.5466097693966983
4860000000.0 -0.725064736244021 -0.5476773676410722
4865000000.0 -0.7252606683913736 -0.5493036852485248
4870000000.0 -0.7262666182885106 -0.5503979899733927
4875000000.0 -0.7266801350514758 -0.551765595503642
4880000000.0 -0.7271677080033021 -0.552901140592449
4885000000.0 -0.7273810110830503 -0.5545724422161634
4890000000.0 -0.7282409933428353 -0.5560069902681685
4895000000.0 -0.728494798642948 -0.5576825291567513
4900000000.0 -0.7283925053611646 -0.5589085618768995
4905000000.0 -0.7286097891127787 -0.5599051544836797
4910000000.0 -0.7288109105295583 -0.5613562996492525
4915000000.0 -0.7288723094371415 -0.5628801603708175
4920000000.0 -0.7291306205765069 -0.5642444020080943
4925000000.0 -0.7292650067901636 -0.5656562921537143
4930000000.0 -0.7292821347253704 -0.567187577843528
4935000000.0 -0.7294418167851865 -0.5686618696719854
4940000000.0 -0.7292843598031173 -0.5701700364942814
4945000000.0 -0.7293182641637723 -0.5716818965574173
4950000000.0 -0.7293879084834424 -0.5732300950699375
4955000000.0 -0.7294048404223008 -0.5746116649080792
4960000000.0 -0.7291161167017658 -0.5762876264501211
4965000000.0 -0.7290993202024837 -0.5779468892950888
4970000000.0 -0.7289580256464661 -0.5793918793785534
4975000000.0 -0.7286368704736431 -0.5810562277798136
4980000000.0 -0.7285343549567511 -0.5827771617595864
4985000000.0 -0.7282383039865254 -0.584525359879261
4990000000.0 -0.7280229787339236 -0.586273965464941
4995000000.0 -0.727589439322722 -0.5881522831765778
5000000000.0 -0.7270922644563895 -0.5897767557251303
5005000000.0 -0.7265938281755407 -0.5918084387533347
5010000000.0 -0.7262577176257228 -0.5934480242535514
5015000000.0 -0.7254198334452002 -0.5953442148272563
5020000000.0 -0.7248645456517938 -0.5969374672794129
5025000000.0 -0.7241070672983225 -0.5992048876736832
5030000000.0 -0.7236748234612919 -0.6004976586273826
5035000000.0 -0.7230538313675239 -0.6023976480155415
5040000000.0 -0.7222089093891091 -0.6040899422882041
5045000000.0 -0.7214281759880302 -0.6054252400827669
5050000000.0 -0.720351826512619 -0.6067817861813212
5055000000.0 -0.7195651842367865 -0.6083776193765993
5060000000.0 -0.7180861613961304 -0.6093896049819115
5065000000.0 -0.7173112285871497 -0.6104427281660397
5070000000.0 -0.7159656440636429 -0.6116190374103196
5075000000.0 -0.7152424253892652 -0.6124366220022665
5080000000.0 -0.7141135960699777 -0.6135513521118391
5085000000.0 -0.7134538298719009 -0.6147302125580967
5090000000.0 -0.7126352045057138 -0.6154541398305209
5095000000.0 -0.7113313921948735 -0.6165103989270531
5100000000.0 -0.7108275048061419 -0.6175738913258059
5105000000.0 -0.7099558762028735 -0.6188406572606509
5110000000.0 -0.7091746952061938 -0.6199119489608323
5115000000.0 -0.7079819251277771 -0.6210286711611862
5120000000.0 -0.7067428135392468 -0.6223575772353724
5125000000.0 -0.7056306711641817 -0.6238291568977113
5130000000.0 -0.7042435206452916 -0.6248701297535659
5135000000.0 -0.7031832337624605 -0.62549588571316
5140000000.0 -0.7010645722235594 -0.6266435067874495
5145000000.0 -0.6999100527974619 -0.6276077575599103
5150000000.0 -0.6981557578742931 -0.6285435703301762
5155000000.0 -0.6963858848691373 -0.6296872781740199
5160000000.0 -0.6946945528369366 -0.6303839355611075
5165000000.0 -0.6931802624800161 -0.6312688204446021
5170000000.0 -0.6916034430877918 -0.632008184386177
5175000000.0 -0.689816952904219 -0.6328150676601543
5180000000.0 -0.6881544731060831 -0.6331889637850983
5185000000.0 -0.6868164317465415 -0.633768549209634
5190000000.0 -0.6848296820584459 -0.6345448585444029
5195000000.0 -0.6831202829628065 -0.6347928738515743
5200000000.0 -0.6813871584545195 -0.63538030389145
5205000000.0 -0.6797252305721576 -0.6361443166128032
5210000000.0 -0.6780127404824928 -0.636411851423803
5215000000.0 -0.6765228124931381 -0.6365830477930808
5220000000.0 -0.6747887298529542 -0.6371153717381566
5225000000.0 -0.6728641850468283 -0.6372569232811673
5230000000.0 -0.671505737882456 -0.6377135494339811
5235000000.0 -0.6699447823389676 -0.6379101441284413
5240000000.0 -0.6681965874634223 -0.6381669170929007
5245000000.0 -0.666538221037315 -0.6387115938173962
5250000000.0 -0.6651124914938276 -0.63894917121971
5255000000.0 -0.6630782425838955 -0.6391380252062037
5260000000.0 -0.6614001223609121 -0.6398205450461613
5265000000.0 -0.6595679731492092 -0.6400682399207323
5270000000.0 -0.6579640371927729 -0.6403242365158202
5275000000.0 -0.6559070284438312 -0.6404854254165837
5280000000.0 -0.6542820717677534 -0.6407500061018012
5285000000.0 -0.6521243313929094 -0.6412222097221141
5290000000.0 -0.6500810251196768 -0.6411628243141485
5295000000.0 -0.6482830256292935 -0.6411726010521278
5300000000.0 -0.6459677776561343 -0.641711320895436
5305000000.0 -0.6440778034148013 -0.6418510278384653
5310000000.0 -0.6415896875286679 -0.641791504568847
5315000000.0 -0.6394039593359537 -0.6416128834233067
5320000000.0 -0.6369640600888139 -0.6411912218355442
5325000000.0 -0.6348522186697695 -0.6412916170858994
5330000000.0 -0.6321942978431752 -0.6405455164833408
5335000000.0 -0.630583071320825 -0.6398248578864217
5340000000.0 -0.6276682816159669 -0.6396266328111021
5345000000.0 -0.6255954046749951 -0.638702155290566
5350000000.0 -0.6228220765198659 -0.6384810322009227
5355000000.0 -0.6207969831143458 -0.6373390989791873
5360000000.0 -0.6184343656012941 -0.6366177539304279
5365000000.0 -0.6164811726796282 -0.6358661575464976
5370000000.0 -0.6140454312617176 -0.6348173110909376
5375000000.0 -0.6122332617185587 -0.6337162505395023
5380000000.0 -0.6104195097963048 -0.6323748237715241
5385000000.0 -0.6076758767425109 -0.6313872102513357
5390000000.0 -0.6064728577973906 -0.6304129254075995
5395000000.0 -0.6042918941401787 -0.6292283138413344
5400000000.0 -0.6018738159862004 -0.6283901512742943
5405000000.0 -0.5997924557648484 -0.6266506818388176
5410000000.0 -0.597900353668775 -0.6258227707043005
5415000000.0 -0.5958414837822322 -0.6246620462453271
5420000000.0 -0.5939481618909287 -0.6232630114213498
5425000000.0 -0.5920645493088974 -0.6220502577615891
5430000000.0 -0.5901045608243766 -0.6204510032847081
5435000000.0 -0.5877492392965836 -0.6190079600474563
5440000000.0 -0.5856581709630059 -0.6171492888445343
5445000000.0 -0.5838543754279106 -0.6162107700354903
5450000000.0 -0.5815864206000647 -0.6140449435321363
5455000000.0 -0.5798603199970171 -0.6123673763236838
5460000000.0 -0.578087671692093 -0.6101616814634546
5465000000.0 -0.5763867648150509 -0.6082153212670414
5470000000.0 -0.574425967290791 -0.6062761293263456
5475000000.0 -0.5728687799843452 -0.6042002707102895
5480000000.0 -0.5712276373124823 -0.6021658291852949
5485000000.0 -0.5697566805705886 -0.6000358376048213
5490000000.0 -0.5684196620033362 -0.5978176591213966
5495000000.0 -0.5673695965799943 -0.5959979681101337
5500000000.0 -0.5661287116840478 -0.5939896900746258
5505000000.0 -0.5646868111720418 -0.5920921329313508
5510000000.0 -0.5632390064757677 -0.590182818788519
5515000000.0 -0.5616762374687739 -0.588293448619072
5520000000.0 -0.5602360269619523 -0.5864097561492473
5525000000.0 -0.5589434514449195 -0.5842143932560441
5530000000.0 -0.5572099010911372 -0.5821115021446449
5535000000.0 -0.5561224337410398 -0.5801896385187564
5540000000.0 -0.5545285185743088 -0.5776542087391119
5545000000.0 -0.5530849991464268 -0.5753695420516589
5550000000.0 -0.552109471226295 -0.57319734287434
5555000000.0 -0.5507731520533797 -0.5710606900397058
5560000000.0 -0.5495285365514919 -0.5688346487716583
5565000000.0 -0.548382142194777 -0.5665574382033319
5570000000.0 -0.5473135591353105 -0.5641850971003572
5575000000.0 -0.5463789017933701 -0.5619370871087546
5580000000.0 -0.5454515340594177 -0.5599651073425813
5585000000.0 -0.5444452695297473 -0.5574778957780078
5590000000.0 -0.5437951277800884 -0.555516691662265
5595000000.0 -0.5427545679005004 -0.5533396232837404
5600000000.0 -0.5415949349387266 -0.5510954920093765
5605000000.0 -0.5407639680561086 -0.5490781448469462
5610000000.0 -0.5398194358142515 -0.5469862327474558
5615000000.0 -0.5387961974131636 -0.5445598278588529
5620000000.0 -0.5375068982444754 -0.5425269168043308
5625000000.0 -0.5358661263227599 -0.5400872380374216
5630000000.0 -0.5352073429254854 -0.5380702147257403
5635000000.0 -0.5342480823273239 -0.5352247904474416
5640000000.0 -0.5329977421639698 -0.5326807306043052
5645000000.0 -0.5322823304358248 -0.5300552773249305
5650000000.0 -0.5313949281307591 -0.5275559040585942
5655000000.0 -0.5305263386966393 -0.5247498666052983
5660000000.0 -0.529921217685797 -0.5222477806198466
5665000000.0 -0.5291126358930003 -0.5197312958980531
5670000000.0 -0.5284788011707284 -0.5170841229613128
5675000000.0 -0.527879833749059 -0.5143889819208171
5680000000.0 -0.526970476270891 -0.5114867844064346
5685000000.0 -0.527015117259074 -0.5091522146495673
5690000000.0 -0.5258773225846135 -0.5065549444182025
5695000000.0 -0.5254031361113456 -0.5037487800059071
5700000000.0 -0.525125825548779 -0.5012260952634977
5705000000.0 -0.5249078170829761 -0.4981444624831799
5710000000.0 -0.5243283157622172 -0.49544954090930515
5715000000.0 -0.5240266871887209 -0.4928886468996109
5720000000.0 -0.5238813086577586 -0.49005941080043913
5725000000.0 -0.5236770335119283 -0.4870982203915152
5730000000.0 -0.5232310703125812 -0.4845404723086587
5735000000.0 -0.5229217045944313 -0.481858093304645
5740000000.0 -0.5228648111969431 -0.47892043724496264
5745000000.0 -0.5229061025395496 -0.4759745318878013
5750000000.0 -0.5224751362695731 -0.47325207469014813
5755000000.0 -0.5225454691963918 -0.4703991976212969
5760000000.0 -0.5226179216141758 -0.4677414663242906
5765000000.0 -0.5225540261201747 -0.4649840686754276
5770000000.0 -0.5227379251980985 -0.4621274823740947
5775000000.0 -0.5229716577868206 -0.45932819740842373
5780000000.0 -0.5230617612634462 -0.4566163583344649
5785000000.0 -0.5231982140637036 -0.45367184702394586
5790000000.0 -0.5235561065357442 -0.4511878107813229
5795000000.0 -0.523903909157327 -0.4484409988631255
5800000000.0 -0.524210186578019 -0.44575915786210696
5805000000.0 -0.5246499693446759 -0.4430080123267643
5810000000.0 -0.5251289871340167 -0.4404280586462463
5815000000.0 -0.5256840379464356 -0.4377137635646668
5820000000.0 -0.5260326676682061 -0.4353485142655225
5825000000.0 -0.5264060285997344 -0.43269958666272107
5830000000.0 -0.5271350279979208 -0.4303367830594244
5835000000.0 -0.5275069226015315 -0.4278133576377142
5840000000.0 -0.5281935954399851 -0.4254749913612381
5845000000.0 -0.5288248061152326 -0.422931647817137
5850000000.0 -0.5293884132871539 -0.4206993980326759
5855000000.0 -0.529841658889083 -0.4180210787756818
5860000000.0 -0.5305105554975759 -0.4160457670241022
5865000000.0 -0.5310651229278385 -0.4133798251803747
5870000000.0 -0.5316304858225303 -0.41101111072361235
5875000000.0 -0.5323746599923985 -0.4087853100196317
5880000000.0 -0.532944251401671 -0.40621108428027536
5885000000.0 -0.5335064436181995 -0.4040456470596812
5890000000.0 -0.5339982277414514 -0.4013781038813692
5895000000.0 -0.5348658646057198 -0.3991855820120108
5900000000.0 -0.5357311841302892 -0.39651047924622845
5905000000.0 -0.5365821839300573 -0.39392225591107244
5910000000.0 -0.5373988661988874 -0.3920608846208543
5915000000.0 -0.538160836563435 -0.389516627819909
5920000000.0 -0.5392110116978907 -0.38704068560663674
5925000000.0 -0.5403212528563792 -0.3846419571401844
5930000000.0 -0.5413769844388053 -0.38261146294350423
5935000000.0 -0.5422665808692548 -0.3799628936480135
5940000000.0 -0.5436364299264146 -0.3784524848010102
5945000000.0 -0.5447249710174816 -0.3759873107582671
5950000000.0 -0.5457037802274095 -0.3737609637192266
5955000000.0 -0.5469627495751757 -0.3718574713063081
5960000000.0 -0.5480263579643287 -0.3696579787884296
5965000000.0 -0.5489437758532872 -0.3677028102657533
5970000000.0 -0.5499065706054027 -0.3658468641463939
5975000000.0 -0.5510187525196805 -0.3637711939531499
5980000000.0 -0.5518995630235978 -0.3618921299188789
5985000000.0 -0.5532558588840978 -0.3595449058823105
5990000000.0 -0.5539111830756648 -0.357508381838133
5995000000.0 -0.5550307297482363 -0.3554797800376894
6000000000.0 -0.5560617238316914 -0.3529509439615853
