! Created with skrf 1.12.0 (http://scikit-rf.org).
# Hz S RI R 50.0 
!freq ReS11 ImS11
!
100000000.0 0.989895 -0.097038
105000000.0 0.98938 -0.101778
110000000.0 0.988835 -0.106683
115000000.0 0.98836 -0.111466
120000000.0 0.987615 -0.116235
125000000.0 0.986952 -0.121156
130000000.0 0.986362 -0.126117
135000000.0 0.985725 -0.130767
140000000.0 0.985007 -0.135522
145000000.0 0.984476 -0.140485
150000000.0 0.983651 -0.14525
155000000.0 0.982971 -0.149995
160000000.0 0.982212 -0.154798
165000000.0 0.981446 -0.159634
170000000.0 0.980721 -0.164176
175000000.0 0.979968 -0.169048
180000000.0 0.979079 -0.173657
185000000.0 0.978134 -0.178591
190000000.0 0.977378 -0.183296
195000000.0 0.976492 -0.187966
200000000.0 0.975538 -0.192695
205000000.0 0.974502 -0.197548
210000000.0 0.973541 -0.202285
215000000.0 0.972458 -0.206923
220000000.0 0.971408 -0.211771
225000000.0 0.970327 -0.216302
230000000.0 0.969224 -0.221058
235000000.0 0.968212 -0.225781
240000000.0 0.96712 -0.230507
245000000.0 0.965963 -0.234991
250000000.0 0.964912 -0.239675
255000000.0 0.963701 -0.244337
260000000.0 0.962595 -0.248979
265000000.0 0.961239 -0.253652
270000000.0 0.960023 -0.258315
275000000.0 0.958818 -0.262949
280000000.0 0.957609 -0.267603
285000000.0 0.956245 -0.272111
290000000.0 0.954839 -0.276745
295000000.0 0.9537 -0.281235
300000000.0 0.952337 -0.286058
305000000.0 0.951093 -0.290445
310000000.0 0.949583 -0.295009
315000000.0 0.948134 -0.299598
320000000.0 0.946821 -0.304206
325000000.0 0.945364 -0.308616
330000000.0 0.943869 -0.313132
335000000.0 0.942403 -0.317684
340000000.0 0.940885 -0.322278
345000000.0 0.939452 -0.326594
350000000.0 0.938017 -0.331113
355000000.0 0.936334 -0.335601
360000000.0 0.93478 -0.340082
365000000.0 0.933092 -0.344421
370000000.0 0.93146 -0.34891
375000000.0 0.929892 -0.353454
380000000.0 0.928427 -0.357871
385000000.0 0.926797 -0.362147
390000000.0 0.925203 -0.366668
395000000.0 0.923548 -0.370941
400000000.0 0.921835 -0.375291
405000000.0 0.920245 -0.379723
410000000.0 0.918476 -0.384038
415000000.0 0.916725 -0.388452
420000000.0 0.914954 -0.392728
425000000.0 0.913229 -0.397144
430000000.0 0.91151 -0.401319
435000000.0 0.909883 -0.405636
440000000.0 0.907872 -0.409891
445000000.0 0.906091 -0.414149
450000000.0 0.904114 -0.418434
455000000.0 0.902364 -0.422657
460000000.0 0.900599 -0.426905
465000000.0 0.898883 -0.431079
470000000.0 0.896971 -0.435355
475000000.0 0.89505 -0.439575
480000000.0 0.893133 -0.443721
485000000.0 0.891152 -0.447773
490000000.0 0.889182 -0.451928
495000000.0 0.887463 -0.45593
500000000.0 0.885563 -0.46002
505000000.0 0.88355 -0.464142
510000000.0 0.881623 -0.46816
515000000.0 0.879477 -0.472267
520000000.0 0.877504 -0.476222
525000000.0 0.875341 -0.480427
530000000.0 0.87344 -0.484396
535000000.0 0.871278 -0.488324
540000000.0 0.869234 -0.492356
545000000.0 0.867192 -0.496323
550000000.0 0.865166 -0.500215
555000000.0 0.863056 -0.504209
560000000.0 0.860934 -0.508056
565000000.0 0.858879 -0.512003
570000000.0 0.856685 -0.515795
575000000.0 0.854621 -0.519651
580000000.0 0.852378 -0.523524
585000000.0 0.85035 -0.527293
590000000.0 0.848125 -0.531116
595000000.0 0.845963 -0.534949
600000000.0 0.84383 -0.538783
605000000.0 0.841444 -0.542507
610000000.0 0.839361 -0.546167
615000000.0 0.837196 -0.54983
620000000.0 0.834982 -0.553463
625000000.0 0.832724 -0.557027
630000000.0 0.830574 -0.560633
635000000.0 0.828309 -0.564357
640000000.0 0.825855 -0.567812
645000000.0 0.823376 -0.57138
650000000.0 0.821331 -0.574937
655000000.0 0.819058 -0.578433
660000000.0 0.816613 -0.581964
665000000.0 0.814349 -0.585404
670000000.0 0.81188 -0.588989
675000000.0 0.809564 -0.592437
680000000.0 0.807149 -0.595832
685000000.0 0.804925 -0.599257
690000000.0 0.802517 -0.602672
695000000.0 0.800096 -0.606057
700000000.0 0.797647 -0.609331
705000000.0 0.795254 -0.612689
710000000.0 0.792914 -0.61591
715000000.0 0.790505 -0.619054
720000000.0 0.788117 -0.622361
725000000.0 0.785644 -0.625572
730000000.0 0.783237 -0.628832
735000000.0 0.780638 -0.632172
740000000.0 0.778222 -0.635296
745000000.0 0.775834 -0.638563
750000000.0 0.773284 -0.641835
755000000.0 0.770859 -0.645004
760000000.0 0.768368 -0.647969
765000000.0 0.765722 -0.651057
770000000.0 0.763224 -0.654135
775000000.0 0.760831 -0.65724
780000000.0 0.758123 -0.660276
785000000.0 0.755554 -0.663405
790000000.0 0.753107 -0.666327
795000000.0 0.750503 -0.669155
800000000.0 0.747972 -0.672089
805000000.0 0.745417 -0.675168
810000000.0 0.742893 -0.677938
815000000.0 0.740295 -0.680828
820000000.0 0.737678 -0.683725
825000000.0 0.735099 -0.686472
830000000.0 0.732406 -0.689372
835000000.0 0.729857 -0.692205
840000000.0 0.727231 -0.695031
845000000.0 0.724713 -0.697879
850000000.0 0.721941 -0.700398
855000000.0 0.719298 -0.703239
860000000.0 0.716667 -0.706031
865000000.0 0.713907 -0.708472
870000000.0 0.711419 -0.711184
875000000.0 0.708646 -0.713874
880000000.0 0.706079 -0.716438
885000000.0 0.703412 -0.718956
890000000.0 0.700458 -0.721394
895000000.0 0.697904 -0.724046
900000000.0 0.695127 -0.726447
905000000.0 0.692589 -0.728933
910000000.0 0.689824 -0.731455
915000000.0 0.687047 -0.733879
920000000.0 0.684244 -0.736268
925000000.0 0.681687 -0.738703
930000000.0 0.678796 -0.740971
935000000.0 0.676147 -0.743291
940000000.0 0.673428 -0.745534
945000000.0 0.670651 -0.747643
950000000.0 0.668023 -0.749863
955000000.0 0.665111 -0.752073
960000000.0 0.662297 -0.754294
965000000.0 0.659596 -0.756354
970000000.0 0.656705 -0.758603
975000000.0 0.653923 -0.760808
980000000.0 0.651221 -0.763038
985000000.0 0.648499 -0.765086
990000000.0 0.645884 -0.767183
995000000.0 0.643238 -0.769181
1000000000.0 0.640469 -0.771343
1005000000.0 0.637865 -0.773361
1010000000.0 0.63503 -0.775197
1015000000.0 0.632232 -0.77722
1020000000.0 0.629428 -0.779215
1025000000.0 0.626854 -0.780962
1030000000.0 0.62393 -0.78279
1035000000.0 0.621045 -0.784441
1040000000.0 0.61822 -0.786319
1045000000.0 0.615566 -0.787996
1050000000.0 0.612671 -0.789799
1055000000.0 0.609754 -0.791403
1060000000.0 0.606828 -0.793109
1065000000.0 0.604176 -0.794807
1070000000.0 0.601248 -0.79645
1075000000.0 0.598474 -0.798116
1080000000.0 0.595552 -0.799776
1085000000.0 0.592916 -0.801338
1090000000.0 0.589997 -0.8028
1095000000.0 0.587083 -0.804491
1100000000.0 0.584291 -0.805865
1105000000.0 0.581453 -0.807344
1110000000.0 0.578598 -0.808757
1115000000.0 0.575802 -0.810077
1120000000.0 0.573026 -0.811565
1125000000.0 0.570184 -0.812849
1130000000.0 0.567438 -0.814132
1135000000.0 0.564635 -0.815413
1140000000.0 0.561922 -0.816656
1145000000.0 0.559019 -0.817892
1150000000.0 0.55615 -0.819025
1155000000.0 0.553317 -0.820131
1160000000.0 0.55014 -0.821214
1165000000.0 0.547329 -0.822435
1170000000.0 0.544447 -0.823409
1175000000.0 0.54149 -0.824428
1180000000.0 0.538541 -0.825468
1185000000.0 0.535559 -0.826442
1190000000.0 0.532745 -0.827495
1195000000.0 0.52989 -0.82847
1200000000.0 0.526956 -0.829263
1205000000.0 0.52397 -0.829798
1210000000.0 0.520988 -0.830555
1215000000.0 0.518091 -0.831463
1220000000.0 0.515191 -0.831941
1225000000.0 0.512208 -0.832483
1230000000.0 0.509434 -0.833073
1235000000.0 0.506605 -0.833667
1240000000.0 0.503767 -0.834088
1245000000.0 0.501187 -0.834592
1250000000.0 0.498505 -0.835164
1255000000.0 0.495853 -0.835798
1260000000.0 0.493158 -0.836172
1265000000.0 0.490549 -0.836746
1270000000.0 0.487914 -0.837495
1275000000.0 0.485216 -0.838256
1280000000.0 0.482368 -0.838781
1285000000.0 0.479445 -0.839376
1290000000.0 0.476643 -0.840039
1295000000.0 0.47367 -0.840593
1300000000.0 0.470881 -0.841212
1305000000.0 0.467859 -0.841728
1310000000.0 0.464907 -0.842399
1315000000.0 0.461932 -0.842941
1320000000.0 0.458942 -0.843428
1325000000.0 0.455988 -0.84391
1330000000.0 0.452755 -0.84435
1335000000.0 0.449727 -0.844813
1340000000.0 0.446641 -0.845134
1345000000.0 0.443695 -0.84563
1350000000.0 0.440549 -0.845906
1355000000.0 0.437447 -0.846241
1360000000.0 0.434372 -0.846535
1365000000.0 0.431272 -0.846696
1370000000.0 0.428139 -0.847218
1375000000.0 0.425039 -0.847623
1380000000.0 0.421783 -0.847905
1385000000.0 0.418773 -0.848001
1390000000.0 0.415584 -0.848212
1395000000.0 0.412581 -0.84842
1400000000.0 0.409282 -0.848744
1405000000.0 0.406225 -0.848811
1410000000.0 0.403196 -0.848896
1415000000.0 0.399963 -0.848968
1420000000.0 0.396731 -0.849036
1425000000.0 0.393528 -0.849075
1430000000.0 0.390365 -0.849054
1435000000.0 0.387129 -0.849028
1440000000.0 0.383933 -0.849108
1445000000.0 0.380639 -0.849145
1450000000.0 0.377575 -0.849173
1455000000.0 0.374357 -0.849339
1460000000.0 0.371117 -0.849409
1465000000.0 0.367902 -0.849396
1470000000.0 0.36479 -0.849487
1475000000.0 0.361422 -0.84953
1480000000.0 0.358275 -0.849595
1485000000.0 0.35515 -0.849747
1490000000.0 0.351913 -0.849777
1495000000.0 0.348696 -0.849811
1500000000.0 0.345592 -0.849923
1505000000.0 0.34247 -0.849863
1510000000.0 0.339233 -0.849732
1515000000.0 0.336119 -0.849801
1520000000.0 0.33278 -0.84959
1525000000.0 0.329549 -0.849496
1530000000.0 0.326315 -0.84949
1535000000.0 0.322939 -0.849216
1540000000.0 0.319697 -0.849071
1545000000.0 0.316352 -0.848928
1550000000.0 0.313177 -0.848743
1555000000.0 0.309925 -0.848626
1560000000.0 0.306674 -0.848255
1565000000.0 0.303392 -0.848126
1570000000.0 0.300038 -0.84773
1575000000.0 0.296661 -0.847389
1580000000.0 0.293292 -0.847162
1585000000.0 0.289831 -0.846744
1590000000.0 0.286559 -0.846458
1595000000.0 0.283127 -0.846296
1600000000.0 0.279635 -0.84611
1605000000.0 0.276171 -0.845961
1610000000.0 0.272986 -0.845735
1615000000.0 0.269822 -0.845467
1620000000.0 0.266459 -0.845333
1625000000.0 0.263252 -0.844951
1630000000.0 0.259751 -0.844711
1635000000.0 0.256453 -0.844131
1640000000.0 0.253112 -0.843996
1645000000.0 0.249723 -0.8435280000000001
1650000000.0 0.246507 -0.843165
1655000000.0 0.243281 -0.843068
1660000000.0 0.239867 -0.842634
1665000000.0 0.236626 -0.842193
1670000000.0 0.233156 -0.84189
1675000000.0 0.229909 -0.841507
1680000000.0 0.226512 -0.840958
1685000000.0 0.223391 -0.840449
1690000000.0 0.219984 -0.840068
1695000000.0 0.216733 -0.839465
1700000000.0 0.213393 -0.839095
1705000000.0 0.210017 -0.838419
1710000000.0 0.206803 -0.837462
1715000000.0 0.2035 -0.836739
1720000000.0 0.200269 -0.835986
1725000000.0 0.19702 -0.835374
1730000000.0 0.19366 -0.834698
1735000000.0 0.190385 -0.833742
1740000000.0 0.187256 -0.833258
1745000000.0 0.183954 -0.832296
1750000000.0 0.180842 -0.831898
1755000000.0 0.17777 -0.831371
1760000000.0 0.174538 -0.830677
1765000000.0 0.17146 -0.830289
1770000000.0 0.168334 -0.830068
1775000000.0 0.165299 -0.829754
1780000000.0 0.162422 -0.82953
1785000000.0 0.159649 -0.829084
1790000000.0 0.1568 -0.828878
1795000000.0 0.153877 -0.828449
1800000000.0 0.150723 -0.828152
1805000000.0 0.147579 -0.827991
1810000000.0 0.144217 -0.827839
1815000000.0 0.141154 -0.82782
1820000000.0 0.137939 -0.82796
1825000000.0 0.134669 -0.82782
1830000000.0 0.131676 -0.827863
1835000000.0 0.128504 -0.827696
1840000000.0 0.125223 -0.827383
1845000000.0 0.122234 -0.827327
1850000000.0 0.118798 -0.827167
1855000000.0 0.115697 -0.827031
1860000000.0 0.112258 -0.826916
1865000000.0 0.109102 -0.826252
1870000000.0 0.105454 -0.82611
1875000000.0 0.101918 -0.825986
1880000000.0 0.098375 -0.825806
1885000000.0 0.094776 -0.825712
1890000000.0 0.091549 -0.825809
1895000000.0 0.08821 -0.825699
1900000000.0 0.084898 -0.825486
1905000000.0 0.081506 -0.825095
1910000000.0 0.078043 -0.82461
1915000000.0 0.074416 -0.824287
1920000000.0 0.070962 -0.824153
1925000000.0 0.067503 -0.823941
1930000000.0 0.064001 -0.823681
1935000000.0 0.060433 -0.823573
1940000000.0 0.056911 -0.823275
1945000000.0 0.053446 -0.82302
1950000000.0 0.049842 -0.822765
1955000000.0 0.046327 -0.822631
1960000000.0 0.042674 -0.82227
1965000000.0 0.039037 -0.821991
1970000000.0 0.035497 -0.821866
1975000000.0 0.031853 -0.82172
1980000000.0 0.028113 -0.821423
1985000000.0 0.024716 -0.821133
1990000000.0 0.02106 -0.820886
1995000000.0 0.017485 -0.820722
2000000000.0 0.013762 -0.820542
2005000000.0 0.01029 -0.820271
2010000000.0 0.006774 -0.820137
2015000000.0 0.003225 -0.819919
2020000000.0 -0.000368 -0.819738
2025000000.0 -0.003855 -0.819475
2030000000.0 -0.00745 -0.819392
2035000000.0 -0.010928 -0.819277
2040000000.0 -0.014422 -0.819049
2045000000.0 -0.017929 -0.818948
2050000000.0 -0.021307 -0.818602
2055000000.0 -0.024967 -0.818625
2060000000.0 -0.028244 -0.818413
2065000000.0 -0.031743 -0.818308
2070000000.0 -0.035081 -0.818002
2075000000.0 -0.038607 -0.81809
2080000000.0 -0.042087 -0.818117
2085000000.0 -0.045446 -0.818067
2090000000.0 -0.048645 -0.818175
2095000000.0 -0.052092 -0.81829
2100000000.0 -0.05541 -0.818274
2105000000.0 -0.0587 -0.818342
2110000000.0 -0.062138 -0.818513
2115000000.0 -0.065399 -0.818534
2120000000.0 -0.068704 -0.818691
2125000000.0 -0.072135 -0.818588
2130000000.0 -0.075428 -0.818641
2135000000.0 -0.078847 -0.818917
2140000000.0 -0.082117 -0.819063
2145000000.0 -0.085533 -0.819132
2150000000.0 -0.089026 -0.819404
2155000000.0 -0.092332 -0.819297
2160000000.0 -0.095661 -0.819415
2165000000.0 -0.09905 -0.819582
2170000000.0 -0.102316 -0.819829
2175000000.0 -0.105845 -0.819915
2180000000.0 -0.109126 -0.819986
2185000000.0 -0.112596 -0.820079
2190000000.0 -0.116045 -0.820318
2195000000.0 -0.119212 -0.820359
2200000000.0 -0.122556 -0.820421
2205000000.0 -0.125871 -0.820682
2210000000.0 -0.129192 -0.820921
2215000000.0 -0.132426 -0.821047
2220000000.0 -0.135846 -0.821118
2225000000.0 -0.13909 -0.821286
2230000000.0 -0.14257 -0.821461
2235000000.0 -0.145678 -0.821676
2240000000.0 -0.148869 -0.82183
2245000000.0 -0.152058 -0.822023
2250000000.0 -0.155212 -0.822326
2255000000.0 -0.158212 -0.822609
2260000000.0 -0.16132 -0.822501
2265000000.0 -0.164326 -0.822779
2270000000.0 -0.167582 -0.822788
2275000000.0 -0.170432 -0.823164
2280000000.0 -0.173456 -0.823389
2285000000.0 -0.176526 -0.82358
2290000000.0 -0.179488 -0.823717
2295000000.0 -0.182357 -0.823848
2300000000.0 -0.185549 -0.823854
2305000000.0 -0.188251 -0.824187
2310000000.0 -0.191136 -0.824123
2315000000.0 -0.194087 -0.824518
2320000000.0 -0.196949 -0.824801
2325000000.0 -0.199863 -0.824975
2330000000.0 -0.202649 -0.824985
2335000000.0 -0.20565 -0.825345
2340000000.0 -0.208415 -0.825601
2345000000.0 -0.211206 -0.826014
2350000000.0 -0.213927 -0.826161
2355000000.0 -0.216681 -0.826724
2360000000.0 -0.219438 -0.826993
2365000000.0 -0.222262 -0.8274
2370000000.0 -0.224849 -0.82791
2375000000.0 -0.227536 -0.828246
2380000000.0 -0.230192 -0.828701
2385000000.0 -0.232932 -0.829354
2390000000.0 -0.235453 -0.829825
2395000000.0 -0.237966 -0.830378
2400000000.0 -0.240617 -0.831133
2405000000.0 -0.242946 -0.831719
2410000000.0 -0.245466 -0.832435
2415000000.0 -0.248113 -0.83311
2420000000.0 -0.250391 -0.833711
2425000000.0 -0.252937 -0.834406
2430000000.0 -0.255299 -0.834877
2435000000.0 -0.257593 -0.835826
2440000000.0 -0.260107 -0.836595
2445000000.0 -0.262403 -0.837217
2450000000.0 -0.264954 -0.837877
2455000000.0 -0.267309 -0.838689
2460000000.0 -0.269758 -0.839616
2465000000.0 -0.272035 -0.840242
2470000000.0 -0.274241 -0.841065
2475000000.0 -0.276526 -0.842044
2480000000.0 -0.278742 -0.842771
2485000000.0 -0.280933 -0.843681
2490000000.0 -0.283271 -0.844377
2495000000.0 -0.285261 -0.845225
2500000000.0 -0.287636 -0.846005
2505000000.0 -0.289593 -0.84666
2510000000.0 -0.291898 -0.847364
2515000000.0 -0.293964 -0.848221
2520000000.0 -0.295988 -0.84881
2525000000.0 -0.298124 -0.849434
2530000000.0 -0.300242 -0.850253
2535000000.0 -0.302229 -0.850836
2540000000.0 -0.304328 -0.851431
2545000000.0 -0.306335 -0.852032
2550000000.0 -0.308696 -0.852607
2555000000.0 -0.310617 -0.853251
2560000000.0 -0.312644 -0.853815
2565000000.0 -0.314725 -0.854564
2570000000.0 -0.316846 -0.855212
2575000000.0 -0.318847 -0.855931
2580000000.0 -0.32092 -0.856674
2585000000.0 -0.322833 -0.857483
2590000000.0 -0.324945 -0.858168
2595000000.0 -0.326615 -0.858933
2600000000.0 -0.328664 -0.859707
2605000000.0 -0.330584 -0.860706
2610000000.0 -0.332449 -0.861286
2615000000.0 -0.334128 -0.862172
2620000000.0 -0.335971 -0.862996
2625000000.0 -0.337596 -0.86366
2630000000.0 -0.339384 -0.864485
2635000000.0 -0.340912 -0.865382
2640000000.0 -0.342465 -0.86612
2645000000.0 -0.34394 -0.866913
2650000000.0 -0.345444 -0.867911
2655000000.0 -0.347135 -0.868508
2660000000.0 -0.348451 -0.869379
2665000000.0 -0.349713 -0.870062
2670000000.0 -0.350949 -0.870988
2675000000.0 -0.352432 -0.871448
2680000000.0 -0.353738 -0.872068
2685000000.0 -0.355308 -0.872808
2690000000.0 -0.35675 -0.873366
2695000000.0 -0.358406 -0.87409
2700000000.0 -0.359847 -0.874744
2705000000.0 -0.361452 -0.875602
2710000000.0 -0.362907 -0.876353
2715000000.0 -0.364545 -0.877312
2720000000.0 -0.365975 -0.878337
2725000000.0 -0.367248 -0.879561
2730000000.0 -0.368574 -0.880862
2735000000.0 -0.369799 -0.882043
2740000000.0 -0.370818 -0.883089
2745000000.0 -0.371911 -0.884218
2750000000.0 -0.372877 -0.885546
2755000000.0 -0.373727 -0.886519
2760000000.0 -0.374446 -0.887622
2765000000.0 -0.375334 -0.888477
2770000000.0 -0.375729 -0.889446
2775000000.0 -0.376355 -0.8904030000000001
2780000000.0 -0.376917 -0.891424
2785000000.0 -0.377361 -0.892235
2790000000.0 -0.377707 -0.893151
2795000000.0 -0.378109 -0.893945
2800000000.0 -0.378402 -0.894771
2805000000.0 -0.378776 -0.895573
2810000000.0 -0.379255 -0.896188
2815000000.0 -0.379598 -0.896627
2820000000.0 -0.379867 -0.897263
2825000000.0 -0.380647 -0.897735
2830000000.0 -0.381097 -0.898121
2835000000.0 -0.38135 -0.89865
2840000000.0 -0.381953 -0.899276
2845000000.0 -0.382501 -0.899888
2850000000.0 -0.382746 -0.900576
2855000000.0 -0.383636 -0.900915
2860000000.0 -0.384229 -0.901296
2865000000.0 -0.38451 -0.901995
2870000000.0 -0.385243 -0.902803
2875000000.0 -0.385571 -0.903542
2880000000.0 -0.385604 -0.904463
2885000000.0 -0.38582 -0.905315
2890000000.0 -0.385627 -0.906307
2895000000.0 -0.385427 -0.907187
2900000000.0 -0.384924 -0.907637
2905000000.0 -0.384536 -0.908376
2910000000.0 -0.38362 -0.908612
2915000000.0 -0.383222 -0.90853
2920000000.0 -0.382843 -0.908477
2925000000.0 -0.382373 -0.908534
2930000000.0 -0.38152 -0.908398
2935000000.0 -0.381529 -0.908379
2940000000.0 -0.381215 -0.908074
2945000000.0 -0.381299 -0.907978
2950000000.0 -0.381312 -0.907646
2955000000.0 -0.3813 -0.907392
2960000000.0 -0.381526 -0.907283
2965000000.0 -0.38188 -0.907398
2970000000.0 -0.381924 -0.907531
2975000000.0 -0.382114 -0.907465
2980000000.0 -0.382304 -0.907611
2985000000.0 -0.382809 -0.908092
2990000000.0 -0.383025 -0.908557
2995000000.0 -0.383042 -0.909303
3000000000.0 -0.382975 -0.910228
3005000000.0 -0.379884 -0.907774
3010000000.0 -0.380312 -0.907979
3015000000.0 -0.380565 -0.908466
3020000000.0 -0.38103 -0.908801
3025000000.0 -0.381674 -0.909643
3030000000.0 -0.38148 -0.910794
3035000000.0 -0.38133 -0.911823
3040000000.0 -0.380885 -0.913338
3045000000.0 -0.380019 -0.91432
3050000000.0 -0.379192 -0.915554
3055000000.0 -0.378138 -0.916664
3060000000.0 -0.376452 -0.917833
3065000000.0 -0.374407 -0.918908
3070000000.0 -0.372431 -0.91935
3075000000.0 -0.370594 -0.919584
3080000000.0 -0.368491 -0.919676
3085000000.0 -0.366172 -0.919896
3090000000.0 -0.363647 -0.919492
3095000000.0 -0.36144 -0.918489
3100000000.0 -0.359298 -0.917137
3105000000.0 -0.357835 -0.915849
3110000000.0 -0.355955 -0.91469
3115000000.0 -0.354025 -0.913004
3120000000.0 -0.352979 -0.911224
3125000000.0 -0.352082 -0.90928
3130000000.0 -0.351435 -0.907951
3135000000.0 -0.350539 -0.906266
3140000000.0 -0.350487 -0.904524
3145000000.0 -0.349914 -0.902997
3150000000.0 -0.350194 -0.901391
3155000000.0 -0.350168 -0.900774
3160000000.0 -0.349848 -0.899638
3165000000.0 -0.35073 -0.899188
3170000000.0 -0.350318 -0.898374
3175000000.0 -0.350747 -0.897873
3180000000.0 -0.351254 -0.897297
3185000000.0 -0.350454 -0.89772
3190000000.0 -0.349825 -0.898126
3195000000.0 -0.349028 -0.898526
3200000000.0 -0.34767 -0.898519
3205000000.0 -0.345913 -0.898883
3210000000.0 -0.343688 -0.899053
3215000000.0 -0.341787 -0.899178
3220000000.0 -0.338959 -0.897922
3225000000.0 -0.336696 -0.896321
3230000000.0 -0.334674 -0.894095
3235000000.0 -0.333245 -0.891889
3240000000.0 -0.332079 -0.889852
3245000000.0 -0.331383 -0.887448
3250000000.0 -0.329991 -0.885593
3255000000.0 -0.329419 -0.88374
3260000000.0 -0.328887 -0.881582
3265000000.0 -0.328264 -0.879721
3270000000.0 -0.327427 -0.87778
3275000000.0 -0.327034 -0.875947
3280000000.0 -0.326625 -0.874241
3285000000.0 -0.326128 -0.872324
3290000000.0 -0.325965 -0.870283
3295000000.0 -0.325771 -0.868957
3300000000.0 -0.325663 -0.867046
3305000000.0 -0.325555 -0.865499
3310000000.0 -0.325241 -0.863903
3315000000.0 -0.325145 -0.862691
3320000000.0 -0.324839 -0.86122
3325000000.0 -0.324776 -0.859513
3330000000.0 -0.324393 -0.85833
3335000000.0 -0.323904 -0.857062
3340000000.0 -0.32369 -0.85624
3345000000.0 -0.322884 -0.855107
3350000000.0 -0.322421 -0.853821
3355000000.0 -0.321433 -0.852642
3360000000.0 -0.320612 -0.851513
3365000000.0 -0.319826 -0.849962
3370000000.0 -0.318512 -0.849055
3375000000.0 -0.317285 -0.847652
3380000000.0 -0.31619 -0.84575
3385000000.0 -0.314807 -0.843834
3390000000.0 -0.313962 -0.842221
3395000000.0 -0.312591 -0.840326
3400000000.0 -0.311551 -0.838202
3405000000.0 -0.309849 -0.836349
3410000000.0 -0.308717 -0.833796
3415000000.0 -0.307642 -0.83126
3420000000.0 -0.306697 -0.82866
3425000000.0 -0.306248 -0.825875
3430000000.0 -0.304941 -0.823312
3435000000.0 -0.304643 -0.820367
3440000000.0 -0.303996 -0.818055
3445000000.0 -0.303348 -0.814309
3450000000.0 -0.303 -0.811699
3455000000.0 -0.302684 -0.808998
3460000000.0 -0.302886 -0.806157
3465000000.0 -0.302858 -0.803119
3470000000.0 -0.303244 -0.800456
3475000000.0 -0.303732 -0.797946
3480000000.0 -0.304048 -0.795334
3485000000.0 -0.30529 -0.792458
3490000000.0 -0.305903 -0.790748
3495000000.0 -0.30644 -0.78882
3500000000.0 -0.30703 -0.786969
3505000000.0 -0.307201 -0.785345
3510000000.0 -0.307545 -0.784076
3515000000.0 -0.307575 -0.782562
3520000000.0 -0.307574 -0.78138
3525000000.0 -0.30693 -0.780136
3530000000.0 -0.306336 -0.779305
3535000000.0 -0.304972 -0.778032
3540000000.0 -0.303328 -0.776226
3545000000.0 -0.301896 -0.774138
3550000000.0 -0.299726 -0.771222
3555000000.0 -0.297602 -0.767914
3560000000.0 -0.295993 -0.763576
3565000000.0 -0.294561 -0.759273
3570000000.0 -0.293471 -0.753565
3575000000.0 -0.293033 -0.747032
3580000000.0 -0.294026 -0.741187
3585000000.0 -0.296747 -0.73569
3590000000.0 -0.299977 -0.730653
3595000000.0 -0.304367 -0.726969
3600000000.0 -0.308608 -0.724417
3605000000.0 -0.312382 -0.722769
3610000000.0 -0.316113 -0.722306
3615000000.0 -0.318009 -0.722788
3620000000.0 -0.319495 -0.722888
3625000000.0 -0.321094 -0.722764
3630000000.0 -0.320458 -0.723202
3635000000.0 -0.320031 -0.722686
3640000000.0 -0.319177 -0.721216
3645000000.0 -0.318153 -0.719799
3650000000.0 -0.31768 -0.717693
3655000000.0 -0.317095 -0.714713
3660000000.0 -0.316718 -0.712113
3665000000.0 -0.316805 -0.709446
3670000000.0 -0.315748 -0.706775
3675000000.0 -0.316527 -0.704185
3680000000.0 -0.315993 -0.701236
3685000000.0 -0.315441 -0.698048
3690000000.0 -0.315687 -0.695214
3695000000.0 -0.315987 -0.691209
3700000000.0 -0.315903 -0.687699
3705000000.0 -0.316018 -0.683773
3710000000.0 -0.316511 -0.679217
3715000000.0 -0.317375 -0.675139
3720000000.0 -0.318751 -0.670562
3725000000.0 -0.320735 -0.665629
3730000000.0 -0.323281 -0.659669
3735000000.0 -0.32685 -0.655245
3740000000.0 -0.331405 -0.651687
3745000000.0 -0.335948 -0.648577
3750000000.0 -0.340937 -0.647356
3755000000.0 -0.345614 -0.646955
3760000000.0 -0.349 -0.647883
3765000000.0 -0.351498 -0.649475
3770000000.0 -0.3521 -0.651434
3775000000.0 -0.350594 -0.652301
3780000000.0 -0.348399 -0.653505
3785000000.0 -0.345489 -0.650943
3790000000.0 -0.343552 -0.646943
3795000000.0 -0.343126 -0.642025
3800000000.0 -0.343464 -0.637418
3805000000.0 -0.34483 -0.63252
3810000000.0 -0.346683 -0.628175
3815000000.0 -0.348869 -0.624288
3820000000.0 -0.351152 -0.620693
3825000000.0 -0.353898 -0.61716
3830000000.0 -0.356564 -0.614244
3835000000.0 -0.362078 -0.614097
3840000000.0 -0.363783 -0.612082
3845000000.0 -0.365732 -0.609921
3850000000.0 -0.367268 -0.607878
3855000000.0 -0.368841 -0.605697
3860000000.0 -0.370535 -0.603654
3865000000.0 -0.372152 -0.601356
3870000000.0 -0.373935 -0.599238
3875000000.0 -0.375608 -0.597166
3880000000.0 -0.37733 -0.595048
3885000000.0 -0.379172 -0.592718
3890000000.0 -0.380854 -0.590441
3895000000.0 -0.382821 -0.58836
3900000000.0 -0.384756 -0.586033
3905000000.0 -0.386573 -0.584029
3910000000.0 -0.388618 -0.581719
3915000000.0 -0.390396 -0.579597
3920000000.0 -0.392371 -0.577418
3925000000.0 -0.394387 -0.575427
3930000000.0 -0.396313 -0.573391
3935000000.0 -0.398275 -0.571341
3940000000.0 -0.400328 -0.569147
3945000000.0 -0.402239 -0.567144
3950000000.0 -0.404601 -0.565252
3955000000.0 -0.406551 -0.563291
3960000000.0 -0.408465 -0.561216
3965000000.0 -0.410774 -0.559318
3970000000.0 -0.412687 -0.557466
3975000000.0 -0.414889 -0.555798
3980000000.0 -0.416894 -0.553923
3985000000.0 -0.419084 -0.552034
3990000000.0 -0.421143 -0.55033
3995000000.0 -0.42321 -0.548492
4000000000.0 -0.425451 -0.546782
4005000000.0 -0.427422 -0.54504
4010000000.0 -0.429426 -0.543324
4015000000.0 -0.431861 -0.541617
4020000000.0 -0.43392 -0.540021
4025000000.0 -0.435888 -0.538216
4030000000.0 -0.438072 -0.536633
4035000000.0 -0.440335 -0.535085
4040000000.0 -0.442373 -0.533416
4045000000.0 -0.444684 -0.531827
4050000000.0 -0.446731 -0.530325
4055000000.0 -0.449096 -0.528759
4060000000.0 -0.451133 -0.527175
4065000000.0 -0.45337 -0.525759
4070000000.0 -0.455637 -0.524265
4075000000.0 -0.457844 -0.522712
4080000000.0 -0.460133 -0.521382
4085000000.0 -0.462438 -0.520007
4090000000.0 -0.464577 -0.518537
4095000000.0 -0.466909 -0.517288
4100000000.0 -0.469108 -0.515801
4105000000.0 -0.47139 -0.51464
4110000000.0 -0.473886 -0.513251
4115000000.0 -0.475838 -0.512141
4120000000.0 -0.478161 -0.510667
4125000000.0 -0.480383 -0.509476
4130000000.0 -0.482693 -0.508428
4135000000.0 -0.485049 -0.507117
4140000000.0 -0.487188 -0.506137
4145000000.0 -0.489524 -0.504864
4150000000.0 -0.491855 -0.503831
4155000000.0 -0.494189 -0.502614
4160000000.0 -0.496341 -0.501575
4165000000.0 -0.49864 -0.500693
4170000000.0 -0.500916 -0.499549
4175000000.0 -0.50315 -0.498775
4180000000.0 -0.505723 -0.497529
4185000000.0 -0.507793 -0.496403
4190000000.0 -0.50997 -0.495594
4195000000.0 -0.512486 -0.494715
4200000000.0 -0.514584 -0.493943
4205000000.0 -0.516864 -0.492809
4210000000.0 -0.519109 -0.492066
4215000000.0 -0.521565 -0.491138
4220000000.0 -0.523787 -0.490339
4225000000.0 -0.526075 -0.489496
4230000000.0 -0.528378 -0.488677
4235000000.0 -0.530635 -0.48778
4240000000.0 -0.532698 -0.486974
4245000000.0 -0.534953 -0.486114
4250000000.0 -0.537217 -0.485605
4255000000.0 -0.539578 -0.48482
4260000000.0 -0.5418 -0.484313
4265000000.0 -0.543902 -0.483694
4270000000.0 -0.546096 -0.482933
4275000000.0 -0.548148 -0.48207
4280000000.0 -0.550387 -0.481473
4285000000.0 -0.55246 -0.480818
4290000000.0 -0.554909 -0.480224
4295000000.0 -0.557085 -0.479341
4300000000.0 -0.559252 -0.478741
4305000000.0 -0.561355 -0.477948
4310000000.0 -0.563673 -0.477579
4315000000.0 -0.566059 -0.476749
4320000000.0 -0.568414 -0.476281
4325000000.0 -0.570781 -0.475655
4330000000.0 -0.573292 -0.475232
4335000000.0 -0.575669 -0.474846
4340000000.0 -0.577871 -0.47456
4345000000.0 -0.580189 -0.474294
4350000000.0 -0.582605 -0.474072
4355000000.0 -0.585014 -0.473903
4360000000.0 -0.587281 -0.473706
4365000000.0 -0.58946 -0.473726
4370000000.0 -0.591674 -0.473572
4375000000.0 -0.593972 -0.47373
4380000000.0 -0.595816 -0.473795
4385000000.0 -0.597953 -0.473452
4390000000.0 -0.599896 -0.473657
4395000000.0 -0.601826 -0.473737
4400000000.0 -0.603711 -0.473506
4405000000.0 -0.605423 -0.473526
4410000000.0 -0.607275 -0.473566
4415000000.0 -0.60925 -0.47351
4420000000.0 -0.61124 -0.473192
4425000000.0 -0.61326 -0.472996
4430000000.0 -0.615126 -0.473019
4435000000.0 -0.617168 -0.472724
4440000000.0 -0.619431 -0.472662
4445000000.0 -0.621455 -0.472578
4450000000.0 -0.623978 -0.472742
4455000000.0 -0.62594 -0.473016
4460000000.0 -0.628361 -0.47323
4465000000.0 -0.630949 -0.473333
4470000000.0 -0.632758 -0.473935
4475000000.0 -0.635059 -0.47433
4480000000.0 -0.637323 -0.47518
4485000000.0 -0.639202 -0.47589
4490000000.0 -0.641107 -0.476554
4495000000.0 -0.642667 -0.477321
4500000000.0 -0.644265 -0.477831
4505000000.0 -0.645915 -0.478712
4510000000.0 -0.647258 -0.479341
4515000000.0 -0.648668 -0.479908
4520000000.0 -0.649773 -0.480384
4525000000.0 -0.651544 -0.480757
4530000000.0 -0.652673 -0.480789
4535000000.0 -0.654492 -0.481308
4540000000.0 -0.655971 -0.481668
4545000000.0 -0.657488 -0.481995
4550000000.0 -0.659234 -0.482586
4555000000.0 -0.660818 -0.483084
4560000000.0 -0.662541 -0.483683
4565000000.0 -0.663984 -0.484179
4570000000.0 -0.665732 -0.484533
4575000000.0 -0.667373 -0.485035
4580000000.0 -0.668935 -0.485629
4585000000.0 -0.670513 -0.486146
4590000000.0 -0.67205 -0.486995
4595000000.0 -0.673896 -0.487593
4600000000.0 -0.675408 -0.488215
4605000000.0 -0.677175 -0.489029
4610000000.0 -0.678826 -0.489535
4615000000.0 -0.680299 -0.490666
4620000000.0 -0.681946 -0.491746
4625000000.0 -0.683548 -0.492511
4630000000.0 -0.685005 -0.493558
4635000000.0 -0.686358 -0.494506
4640000000.0 -0.68772 -0.495507
4645000000.0 -0.689085 -0.496857
4650000000.0 -0.690371 -0.497732
4655000000.0 -0.691738 -0.499044
4660000000.0 -0.692871 -0.500243
4665000000.0 -0.694499 -0.501541
4670000000.0 -0.695504 -0.502728
4675000000.0 -0.696603 -0.503826
4680000000.0 -0.697666 -0.505144
4685000000.0 -0.698728 -0.506353
4690000000.0 -0.699664 -0.507445
4695000000.0 -0.700712 -0.50837
4700000000.0 -0.701879 -0.509547
4705000000.0 -0.702918 -0.510633
4710000000.0 -0.703668 -0.511491
4715000000.0 -0.704321 -0.51253
4720000000.0 -0.705488 -0.513365
4725000000.0 -0.706616 -0.514261
4730000000.0 -0.707705 -0.515657
4735000000.0 -0.708607 -0.516274
4740000000.0 -0.709932 -0.517185
4745000000.0 -0.710856 -0.518794
4750000000.0 -0.712727 -0.519314
4755000000.0 -0.71354 -0.52049
4760000000.0 -0.714668 -0.52201
4765000000.0 -0.715877 -0.523618
4770000000.0 -0.717131 -0.524487
4775000000.0 -0.718125 -0.526269
4780000000.0 -0.71864 -0.528522
4785000000.0 -0.71958 -0.530186
4790000000.0 -0.7202 -0.531396
4795000000.0 -0.720516 -0.533192
4800000000.0 -0.720753 -0.534835
4805000000.0 -0.720948 -0.536186
4810000000.0 -0.721025 -0.536942
4815000000.0 -0.721386 -0.538806
4820000000.0 -0.721585 -0.540057
4825000000.0 -0.722463 -0.540391
4830000000.0 -0.722303 -0.542104
4835000000.0 -0.722522 -0.542516
4840000000.0 -0.722948 -0.543499
4845000000.0 -0.72339 -0.544726
4850000000.0 -0.724324 -0.545559
4855000000.0 -0.724191 -0.54661
4860000000.0 -0.725065 -0.547677
4865000000.0 -0.725261 -0.549304
4870000000.0 -0.726267 -0.550398
4875000000.0 -0.72668 -0.551766
4880000000.0 -0.727168 -0.552901
4885000000.0 -0.727381 -0.554572
4890000000.0 -0.728241 -0.556007
4895000000.0 -0.728495 -0.557683
4900000000.0 -0.728393 -0.558909
4905000000.0 -0.72861 -0.559905
4910000000.0 -0.728811 -0.561356
4915000000.0 -0.728872 -0.56288
4920000000.0 -0.729131 -0.564244
4925000000.0 -0.729265 -0.565656
4930000000.0 -0.729282 -0.567188
4935000000.0 -0.729442 -0.568662
4940000000.0 -0.729284 -0.57017
4945000000.0 -0.729318 -0.571682
4950000000.0 -0.729388 -0.57323
4955000000.0 -0.729405 -0.574612
4960000000.0 -0.729116 -0.576288
4965000000.0 -0.729099 -0.577947
4970000000.0 -0.728958 -0.579392
4975000000.0 -0.728637 -0.581056
4980000000.0 -0.728534 -0.582777
4985000000.0 -0.728238 -0.584525
4990000000.0 -0.728023 -0.586274
4995000000.0 -0.727589 -0.588152
5000000000.0 -0.727092 -0.589777
5005000000.0 -0.726594 -0.591808
5010000000.0 -0.726258 -0.593448
5015000000.0 -0.72542 -0.595344
5020000000.0 -0.724865 -0.596937
5025000000.0 -0.724107 -0.599205
5030000000.0 -0.723675 -0.600498
5035000000.0 -0.723054 -0.602398
5040000000.0 -0.722209 -0.60409
5045000000.0 -0.721428 -0.605425
5050000000.0 -0.720352 -0.606782
5055000000.0 -0.719565 -0.608378
5060000000.0 -0.718086 -0.60939
5065000000.0 -0.717311 -0.610443
5070000000.0 -0.715966 -0.611619
5075000000.0 -0.715242 -0.612437
5080000000.0 -0.714114 -0.613551
5085000000.0 -0.713454 -0.61473
5090000000.0 -0.712635 -0.615454
5095000000.0 -0.711331 -0.61651
5100000000.0 -0.710828 -0.617574
5105000000.0 -0.709956 -0.618841
5110000000.0 -0.709175 -0.619912
5115000000.0 -0.707982 -0.621029
5120000000.0 -0.706743 -0.622358
5125000000.0 -0.705631 -0.623829
5130000000.0 -0.704244 -0.62487
5135000000.0 -0.703183 -0.625496
5140000000.0 -0.701065 -0.626644
5145000000.0 -0.69991 -0.627608
5150000000.0 -0.698156 -0.628544
5155000000.0 -0.696386 -0.629687
5160000000.0 -0.694695 -0.630384
5165000000.0 -0.69318 -0.631269
5170000000.0 -0.691603 -0.632008
5175000000.0 -0.689817 -0.632815
5180000000.0 -0.688154 -0.633189
5185000000.0 -0.686816 -0.633769
5190000000.0 -0.68483 -0.634545
5195000000.0 -0.68312 -0.634793
5200000000.0 -0.681387 -0.63538
5205000000.0 -0.679725 -0.636144
5210000000.0 -0.678013 -0.636412
5215000000.0 -0.676523 -0.636583
5220000000.0 -0.674789 -0.637115
5225000000.0 -0.672864 -0.637257
5230000000.0 -0.671506 -0.637714
5235000000.0 -0.669945 -0.63791
5240000000.0 -0.668197 -0.638167
5245000000.0 -0.666538 -0.638712
5250000000.0 -0.665112 -0.638949
5255000000.0 -0.663078 -0.639138
5260000000.0 -0.6614 -0.639821
5265000000.0 -0.659568 -0.640068
5270000000.0 -0.657964 -0.640324
5275000000.0 -0.655907 -0.640485
5280000000.0 -0.654282 -0.64075
5285000000.0 -0.652124 -0.641222
5290000000.0 -0.650081 -0.641163
5295000000.0 -0.648283 -0.641173
5300000000.0 -0.645968 -0.641711
5305000000.0 -0.644078 -0.641851
5310000000.0 -0.64159 -0.641792
5315000000.0 -0.639404 -0.641613
5320000000.0 -0.636964 -0.641191
5325000000.0 -0.634852 -0.641292
5330000000.0 -0.632194 -0.640546
5335000000.0 -0.630583 -0.639825
5340000000.0 -0.627668 -0.639627
5345000000.0 -0.625595 -0.638702
5350000000.0 -0.622822 -0.638481
5355000000.0 -0.620797 -0.637339
5360000000.0 -0.618434 -0.636618
5365000000.0 -0.616481 -0.635866
5370000000.0 -0.614045 -0.634817
5375000000.0 -0.612233 -0.633716
5380000000.0 -0.61042 -0.632375
5385000000.0 -0.607676 -0.631387
5390000000.0 -0.606473 -0.630413
5395000000.0 -0.604292 -0.629228
5400000000.0 -0.601874 -0.62839
5405000000.0 -0.599792 -0.626651
5410000000.0 -0.5979 -0.625823
5415000000.0 -0.595841 -0.624662
5420000000.0 -0.593948 -0.623263
5425000000.0 -0.592065 -0.62205
5430000000.0 -0.590105 -0.620451
5435000000.0 -0.587749 -0.619008
5440000000.0 -0.585658 -0.617149
5445000000.0 -0.583854 -0.616211
5450000000.0 -0.581586 -0.614045
5455000000.0 -0.57986 -0.612367
5460000000.0 -0.578088 -0.610162
5465000000.0 -0.576387 -0.608215
5470000000.0 -0.574426 -0.606276
5475000000.0 -0.572869 -0.6042
5480000000.0 -0.571228 -0.602166
5485000000.0 -0.569757 -0.600036
5490000000.0 -0.56842 -0.597818
5495000000.0 -0.56737 -0.595998
5500000000.0 -0.566129 -0.59399
5505000000.0 -0.564687 -0.592092
5510000000.0 -0.563239 -0.590183
5515000000.0 -0.561676 -0.588293
5520000000.0 -0.560236 -0.58641
5525000000.0 -0.558943 -0.584214
5530000000.0 -0.55721 -0.582112
5535000000.0 -0.556122 -0.58019
5540000000.0 -0.554529 -0.577654
5545000000.0 -0.553085 -0.57537
5550000000.0 -0.552109 -0.573197
5555000000.0 -0.550773 -0.571061
5560000000.0 -0.549529 -0.568835
5565000000.0 -0.548382 -0.566557
5570000000.0 -0.547314 -0.564185
5575000000.0 -0.546379 -0.561937
5580000000.0 -0.545452 -0.559965
5585000000.0 -0.544445 -0.557478
5590000000.0 -0.543795 -0.555517
5595000000.0 -0.542755 -0.55334
5600000000.0 -0.541595 -0.551095
5605000000.0 -0.540764 -0.549078
5610000000.0 -0.539819 -0.546986
5615000000.0 -0.538796 -0.54456
5620000000.0 -0.537507 -0.542527
5625000000.0 -0.535866 -0.540087
5630000000.0 -0.535207 -0.53807
5635000000.0 -0.534248 -0.535225
5640000000.0 -0.532998 -0.532681
5645000000.0 -0.532282 -0.530055
5650000000.0 -0.531395 -0.527556
5655000000.0 -0.530526 -0.52475
5660000000.0 -0.529921 -0.522248
5665000000.0 -0.529113 -0.519731
5670000000.0 -0.528479 -0.517084
5675000000.0 -0.52788 -0.514389
5680000000.0 -0.52697 -0.511487
5685000000.0 -0.527015 -0.509152
5690000000.0 -0.525877 -0.506555
5695000000.0 -0.525403 -0.503749
5700000000.0 -0.525126 -0.501226
5705000000.0 -0.524908 -0.498144
5710000000.0 -0.524328 -0.49545
5715000000.0 -0.524027 -0.492889
5720000000.0 -0.523881 -0.490059
5725000000.0 -0.523677 -0.487098
5730000000.0 -0.523231 -0.48454
5735000000.0 -0.522922 -0.481858
5740000000.0 -0.522865 -0.47892
5745000000.0 -0.522906 -0.475975
5750000000.0 -0.522475 -0.473252
5755000000.0 -0.522545 -0.470399
5760000000.0 -0.522618 -0.467741
5765000000.0 -0.522554 -0.464984
5770000000.0 -0.522738 -0.462127
5775000000.0 -0.522972 -0.459328
5780000000.0 -0.523062 -0.456616
5785000000.0 -0.523198 -0.453672
5790000000.0 -0.523556 -0.451188
5795000000.0 -0.523904 -0.448441
5800000000.0 -0.52421 -0.445759
5805000000.0 -0.52465 -0.443008
5810000000.0 -0.525129 -0.440428
5815000000.0 -0.525684 -0.437714
5820000000.0 -0.526033 -0.435349
5825000000.0 -0.526406 -0.4327
5830000000.0 -0.527135 -0.430337
5835000000.0 -0.527507 -0.427813
5840000000.0 -0.528194 -0.425475
5845000000.0 -0.528825 -0.422932
5850000000.0 -0.529388 -0.420699
5855000000.0 -0.529842 -0.418021
5860000000.0 -0.530511 -0.416046
5865000000.0 -0.531065 -0.41338
5870000000.0 -0.53163 -0.411011
5875000000.0 -0.532375 -0.408785
5880000000.0 -0.532944 -0.406211
5885000000.0 -0.533506 -0.404046
5890000000.0 -0.533998 -0.401378
5895000000.0 -0.534866 -0.399186
5900000000.0 -0.535731 -0.39651
5905000000.0 -0.536582 -0.393922
5910000000.0 -0.537399 -0.392061
5915000000.0 -0.538161 -0.389517
5920000000.0 -0.539211 -0.387041
5925000000.0 -0.540321 -0.384642
5930000000.0 -0.541377 -0.382611
5935000000.0 -0.542267 -0.379963
5940000000.0 -0.543636 -0.378452
5945000000.0 -0.544725 -0.375987
5950000000.0 -0.545704 -0.373761
5955000000.0 -0.546963 -0.371857
5960000000.0 -0.548026 -0.369658
5965000000.0 -0.548944 -0.367703
5970000000.0 -0.549907 -0.365847
5975000000.0 -0.551019 -0.363771
5980000000.0 -0.5519 -0.361892
5985000000.0 -0.553256 -0.359545
5990000000.0 -0.553911 -0.357508
5995000000.0 -0.555031 -0.35548
6000000000.0 -0.556062 -0.352951
