! Created with skrf 1.12.0 (http://scikit-rf.org).
# Hz S RI R 50.0 
!freq ReS11 ImS11
!
1000000.0 0.9996483880504332 -0.006272196506390107
2000000.0 0.9994780003976729 -0.012296827055825332
3000000.0 0.9993640663420144 -0.018203020665862758
4000000.0 0.999267283069204 -0.024053595698618927
5000000.0 0.9991224982864656 -0.030090789292291486
6000000.0 0.998882068337881 -0.035922229051703086
7000000.0 0.9985713665329522 -0.04187927114932037
8000000.0 0.9983733464129793 -0.04784675883665882
9000000.0 0.9979593114751155 -0.05375136916962311
10000000.0 0.9976798607297003 -0.05971521858862941
11000000.0 0.9973780625976757 -0.06558660757526523
12000000.0 0.9968076071294704 -0.07154300190913139
13000000.0 0.9962784401143595 -0.07750793181846836
14000000.0 0.995957620362777 -0.08328151849466843
15000000.0 0.9953634661924168 -0.08915916321869162
16000000.0 0.9948841325267247 -0.09514340524144164
17000000.0 0.9942255742703798 -0.10076096488865866
18000000.0 0.9936731368078583 -0.10682715197106707
19000000.0 0.992975799250988 -0.11260875138195196
20000000.0 0.9923053512991624 -0.11847247316635545
21000000.0 0.9914712783951714 -0.12434736833515518
22000000.0 0.9907388646531556 -0.13026929819167632
23000000.0 0.9899792322663034 -0.13595979586134233
24000000.0 0.9890838493957395 -0.14181118278663898
25000000.0 0.9881879039063056 -0.14771339328993624
26000000.0 0.9873999996627144 -0.15335559728995524
27000000.0 0.9863701309381727 -0.1593859049063948
28000000.0 0.9854028961262182 -0.16496210781896636
29000000.0 0.984356707565392 -0.17082694167677734
30000000.0 0.9832494765255142 -0.17667045581723465
31000000.0 0.9822043166180582 -0.18211938850698686
32000000.0 0.9810447771217311 -0.1878870136534652
33000000.0 0.9800598158145135 -0.19383341721026628
34000000.0 0.9787915615238812 -0.19944642252976563
35000000.0 0.9775456788707201 -0.20522582339922618
36000000.0 0.9762756182957864 -0.2109638715562556
37000000.0 0.9750228833356929 -0.21658036124782304
38000000.0 0.9738294775490104 -0.2222130079869451
39000000.0 0.9722116051025576 -0.22777812919019652
40000000.0 0.9710518143786003 -0.23348552078700682
41000000.0 0.9696397512185869 -0.23904350244272293
42000000.0 0.9681344580233714 -0.24460334588761506
43000000.0 0.9666931533654607 -0.25013939596621804
44000000.0 0.9652872689483446 -0.25573244085007346
45000000.0 0.9635934667183933 -0.26135762232055987
46000000.0 0.9621510059477784 -0.26694434701151165
47000000.0 0.9605089512777055 -0.27247746033999704
48000000.0 0.9589637985558402 -0.27798944821506477
49000000.0 0.9571257530079167 -0.28340588431901487
50000000.0 0.9556367193049006 -0.2888052233886987
51000000.0 0.9539163548080128 -0.29429737826370606
52000000.0 0.9520436602109098 -0.2997969487791819
53000000.0 0.9502894127563029 -0.30507439785953017
54000000.0 0.9485533458970509 -0.3105510258441721
55000000.0 0.9464771040528662 -0.3159577382698608
56000000.0 0.9446906101063592 -0.3212433549884727
57000000.0 0.9428642769685996 -0.3266188455789233
58000000.0 0.9409275417485765 -0.3319851491747179
59000000.0 0.9388470057987941 -0.3373979396138754
60000000.0 0.9369168982036191 -0.34253998350791864
61000000.0 0.9350128249753552 -0.3479577864085319
62000000.0 0.9328457237631083 -0.3531262643528621
63000000.0 0.9307700032266484 -0.3583634760368808
64000000.0 0.9287419532317858 -0.3636112923297409
65000000.0 0.9265550738990125 -0.36877981305592794
66000000.0 0.924371335310372 -0.3740407735442885
67000000.0 0.922145236513797 -0.37913222174170386
68000000.0 0.9199110506077908 -0.3842306151491998
69000000.0 0.9176766150052593 -0.38933247497081647
70000000.0 0.9153601610895873 -0.39424638892303104
71000000.0 0.9131956930391876 -0.3993729424338148
72000000.0 0.9108422153778296 -0.40444374376111975
73000000.0 0.9086229448516273 -0.40946668739359404
74000000.0 0.9061426638112555 -0.4144579542405804
75000000.0 0.9036386828163827 -0.4193679324298809
76000000.0 0.9012801866578616 -0.424488712790941
77000000.0 0.8987594072449235 -0.4294973629901537
78000000.0 0.8962758459953578 -0.4341334959716576
79000000.0 0.8938089403641594 -0.4391222330594542
80000000.0 0.8910718288695665 -0.44395023735488903
81000000.0 0.8884678349450785 -0.4487678466270063
82000000.0 0.8859335048167137 -0.45359997186100426
83000000.0 0.8833456126044236 -0.4584730627432498
84000000.0 0.880607157855961 -0.46325839375417166
85000000.0 0.8779045398233427 -0.4679821090650478
86000000.0 0.8751687549806106 -0.47263689730116243
87000000.0 0.8724814257501569 -0.4774758132211355
88000000.0 0.8696416088067676 -0.4820995687616332
89000000.0 0.866941811377773 -0.48683094753797296
90000000.0 0.8639531705273482 -0.49151069148513016
91000000.0 0.8612315175710281 -0.49600970659823584
92000000.0 0.858417993720697 -0.5005323729884228
93000000.0 0.8556208012194069 -0.5051598476335888
94000000.0 0.8527958774129429 -0.5096711968330502
95000000.0 0.8497001764153773 -0.5142981033386326
96000000.0 0.8468521751737818 -0.5186445283162227
97000000.0 0.8438085196342833 -0.5231986461765319
98000000.0 0.8409443400319586 -0.5276647275407278
99000000.0 0.8378227527057919 -0.5319770811474519
100000000.0 0.8349005493661633 -0.5363668555754979
101000000.0 0.8319037093929343 -0.540700718985613
102000000.0 0.8288448268722445 -0.5452203790449653
103000000.0 0.8257219497129794 -0.549365551473328
104000000.0 0.822677382182061 -0.5538084820282433
105000000.0 0.8194221014557455 -0.5578852009665182
106000000.0 0.8162365878707102 -0.5622595435762862
107000000.0 0.813105314007383 -0.5663704531308813
108000000.0 0.8099575223373747 -0.5705873043468187
109000000.0 0.8066949361553064 -0.5746438937248068
110000000.0 0.8035006302652655 -0.5787978902230861
111000000.0 0.8002921307433478 -0.5827053305412365
112000000.0 0.797091862176226 -0.5868095363367938
113000000.0 0.7937366235016827 -0.5909247831686212
114000000.0 0.7902976457164443 -0.5948369533877097
115000000.0 0.7871322167533071 -0.5988054967183286
116000000.0 0.7838247642473963 -0.6026617032436189
117000000.0 0.7804949715104977 -0.6064817899958098
118000000.0 0.7770411351105829 -0.6106955332501097
119000000.0 0.7737170045909555 -0.6145145862465337
120000000.0 0.7702773674290148 -0.6182542661142038
121000000.0 0.7668430445090009 -0.622110404781704
122000000.0 0.7633929237585848 -0.625968925499719
123000000.0 0.7598605658410571 -0.629617868251903
124000000.0 0.7565253827075819 -0.6332398373728313
125000000.0 0.7529372969652925 -0.6370813584016197
126000000.0 0.7494095883901427 -0.6407562986549306
127000000.0 0.7459979779596851 -0.6444593552504568
128000000.0 0.7424295660803797 -0.6480872430338619
129000000.0 0.7387349195638462 -0.651748673864736
130000000.0 0.7352828679962563 -0.6551181179835108
131000000.0 0.7315883416329383 -0.6586790885868437
132000000.0 0.728083307586684 -0.6622801701298039
133000000.0 0.7244420586173494 -0.6659711267303848
134000000.0 0.7207963638239501 -0.6691332729287943
135000000.0 0.7172192400076931 -0.6727533004470277
136000000.0 0.7135432216229193 -0.6761660277940429
137000000.0 0.709853380999544 -0.6795509806167334
138000000.0 0.7060801809731215 -0.6828119071489926
139000000.0 0.7023576434339421 -0.6862259906041924
140000000.0 0.6986596787861061 -0.6894845611167203
141000000.0 0.6950484968016586 -0.6927963024884326
142000000.0 0.6912944201500439 -0.695998897805347
143000000.0 0.6874178361626732 -0.6992387425136988
144000000.0 0.6836888956689461 -0.702521370675861
145000000.0 0.680036212148962 -0.7057301430411373
146000000.0 0.6762101331108394 -0.7087792739057812
147000000.0 0.6721908432255728 -0.7119853046303674
148000000.0 0.6685165007809204 -0.7149137782176622
149000000.0 0.6645960902394389 -0.7180788162059337
150000000.0 0.6608564544300576 -0.7211764584233019
151000000.0 0.657021862937571 -0.7241934224854689
152000000.0 0.6529336020832062 -0.72731290329001
153000000.0 0.6492260680015929 -0.7302115510112245
154000000.0 0.6452250020619553 -0.7331665466553594
155000000.0 0.6412601180031223 -0.7359765218428244
156000000.0 0.6375093109711184 -0.7387934849002761
157000000.0 0.6336137023777121 -0.7416969091572051
158000000.0 0.6296233238396938 -0.7445108403826937
159000000.0 0.6256068810749315 -0.7474441573125232
160000000.0 0.6217202827337825 -0.7501979218549429
161000000.0 0.6175104972369788 -0.7529544369806732
162000000.0 0.6137489385846179 -0.7556181711901949
163000000.0 0.6098372512256923 -0.7584187050951817
164000000.0 0.6059114614622509 -0.7611866636100283
165000000.0 0.6019997334363687 -0.7637922333797968
166000000.0 0.59802586641573 -0.7665816604255773
167000000.0 0.5940959901765268 -0.7691738546907655
168000000.0 0.5902092695684529 -0.7718669253163587
169000000.0 0.5862106785913624 -0.7744318871719811
170000000.0 0.5820508791769273 -0.7770486064448435
171000000.0 0.5782388588445305 -0.7794930127258984
172000000.0 0.5740868106830341 -0.782004748459912
173000000.0 0.5700530149046367 -0.7844319495596866
174000000.0 0.56606008678908 -0.7870327450680004
175000000.0 0.5620621888799353 -0.7893980194723643
176000000.0 0.5580057589878313 -0.7920045199147182
177000000.0 0.5539704681178313 -0.7942757463357737
178000000.0 0.5498506117409449 -0.7966029465010077
179000000.0 0.5458055896287332 -0.7989162110087837
180000000.0 0.5417489984261915 -0.8013985433434716
181000000.0 0.5377176479579422 -0.8036155648375961
182000000.0 0.5335553440423002 -0.8059493576284171
183000000.0 0.529509297914258 -0.8081697812605567
184000000.0 0.5253209087178579 -0.8102876865468179
185000000.0 0.5211885723914308 -0.8126331306923975
186000000.0 0.5171065226221655 -0.8148550218976165
187000000.0 0.5130008920978671 -0.8169538409884646
188000000.0 0.5088618632958632 -0.8190936085321269
189000000.0 0.5047138381399382 -0.8211730042397982
190000000.0 0.5005678675793637 -0.8233908349364776
191000000.0 0.49655842028542474 -0.8254620986175836
192000000.0 0.49240953769063106 -0.8275282389865438
193000000.0 0.48830693629981203 -0.8296345232369874
194000000.0 0.48426355544492394 -0.8316356744401584
195000000.0 0.48015890160982133 -0.8335474062897853
196000000.0 0.47599337235513245 -0.8356674275544652
197000000.0 0.471891548413191 -0.8376533064289271
198000000.0 0.46763284312181214 -0.8395865627867322
199000000.0 0.46365287735366617 -0.8416032751551826
200000000.0 0.4595862919442942 -0.8435018892317425
201000000.0 0.4554732336512656 -0.8454137475687268
202000000.0 0.4512740964616607 -0.8473217258776602
203000000.0 0.44722642100171683 -0.8491891958688781
204000000.0 0.44306242386370526 -0.8508779033208548
205000000.0 0.4389249369250378 -0.8527894373935726
206000000.0 0.434875857577701 -0.8546283440473122
207000000.0 0.4307153069461569 -0.8564426913643312
208000000.0 0.4266889051279972 -0.8581234418244168
209000000.0 0.42247146922280593 -0.8599189978427267
210000000.0 0.418250145597623 -0.861618905938363
211000000.0 0.4140723646063392 -0.8633846616493326
212000000.0 0.41013010200504973 -0.8650962110418304
213000000.0 0.40607293419793117 -0.8667734926922805
214000000.0 0.4019476621784563 -0.8684308432248574
215000000.0 0.3978168214518111 -0.8701691907281358
216000000.0 0.39359978244511434 -0.8716150964544681
217000000.0 0.38954850981669337 -0.8732472962164689
218000000.0 0.3853855331795296 -0.8748099229091162
219000000.0 0.3811922728681961 -0.8765521050989421
220000000.0 0.3770698130862045 -0.8781021428519515
221000000.0 0.37315165861852245 -0.8797250205715084
222000000.0 0.36892993793941625 -0.8811404540100966
223000000.0 0.36492306129050617 -0.8826532147162413
224000000.0 0.36070855828433124 -0.8841699045979525
225000000.0 0.356551566160553 -0.8856923064712782
226000000.0 0.35254564755058415 -0.8871740895964128
227000000.0 0.3484319703021919 -0.8885704121386292
228000000.0 0.34445727896548217 -0.889830187441063
229000000.0 0.3404164704259844 -0.8912950156191178
230000000.0 0.3362656790160421 -0.8927491993013112
231000000.0 0.3322008167442947 -0.8942522869466846
232000000.0 0.3281954532992136 -0.8954272129232216
233000000.0 0.32422992833020464 -0.8967538033756484
234000000.0 0.32010514780602534 -0.8982380729058036
235000000.0 0.3161130502316327 -0.8994676807841087
236000000.0 0.31194437373822714 -0.900599900371828
237000000.0 0.30798227873485756 -0.902099629405091
238000000.0 0.30393769263386994 -0.9032657582800304
239000000.0 0.2998942223595715 -0.9044622826920885
240000000.0 0.2958827748027858 -0.9057382518094345
241000000.0 0.29184187173705706 -0.9068291752048568
242000000.0 0.28779531099569966 -0.9080750058760406
243000000.0 0.28379415928416024 -0.9091947052140359
244000000.0 0.2799398881521371 -0.9102633536364736
245000000.0 0.27593818098662787 -0.9114924931309559
246000000.0 0.27207806317502 -0.9124925743278297
247000000.0 0.2679272601084401 -0.913763738774752
248000000.0 0.2639776088282105 -0.9147802482719093
249000000.0 0.259981910473743 -0.9158177417409236
250000000.0 0.2560401306434347 -0.9168044714967555
251000000.0 0.2521007767813422 -0.9178999990263951
252000000.0 0.24809045294683255 -0.9189158018194945
253000000.0 0.24416538713430588 -0.9199364647162985
254000000.0 0.24022592223470052 -0.9209059256508462
255000000.0 0.23632813725817212 -0.9218688218632893
256000000.0 0.2324037297666956 -0.9227133918280327
257000000.0 0.22855980655179903 -0.9237741563098797
258000000.0 0.22467009882239383 -0.9247428729476902
259000000.0 0.22079234318032653 -0.9256438111867189
260000000.0 0.21697934367223543 -0.9265916980510394
261000000.0 0.21309065465428279 -0.927547679971587
262000000.0 0.20911778651236582 -0.928411613995502
263000000.0 0.20522588345491982 -0.9292393900170292
264000000.0 0.2015876207320586 -0.930113419370673
265000000.0 0.1976354858928617 -0.9309594879595828
266000000.0 0.1938410982432259 -0.931759306728606
267000000.0 0.18998372686985696 -0.9326726196008907
268000000.0 0.18611962491188627 -0.933409635196041
269000000.0 0.18231697827768778 -0.9342528722401302
270000000.0 0.17861922819740672 -0.9350147713030267
271000000.0 0.17485350237057853 -0.9357325255266403
272000000.0 0.17102369805558124 -0.9364477756042956
273000000.0 0.1674159689180444 -0.9372222734860579
274000000.0 0.16345611397902332 -0.9379339019635781
275000000.0 0.15968821720668483 -0.9385103291442739
276000000.0 0.15609746877524397 -0.9393989788874976
277000000.0 0.15237742255728787 -0.9399633789076187
278000000.0 0.14855099643583952 -0.9407047224287696
279000000.0 0.144903335931663 -0.9413473844143778
280000000.0 0.14129453874213016 -0.9419177476896713
281000000.0 0.13763487631367677 -0.9425552245541702
282000000.0 0.1338442645399008 -0.9432137875927743
283000000.0 0.1301485258017281 -0.943768125104083
284000000.0 0.12646206008114272 -0.9443662623095612
285000000.0 0.1229208003180202 -0.9450523288736065
286000000.0 0.1191713274922365 -0.9455376117972942
287000000.0 0.11564100793667353 -0.9461173829422723
288000000.0 0.11196823027260376 -0.9467711373635865
289000000.0 0.10834853180660456 -0.9472999959227428
290000000.0 0.10474549244436078 -0.9478285930118603
291000000.0 0.10119817262986645 -0.9482698494821646
292000000.0 0.097636734429397 -0.9488911089304861
293000000.0 0.09392573396886596 -0.9493936209707963
294000000.0 0.09046636996999007 -0.9498686278121606
295000000.0 0.0867860678359369 -0.9503820423206129
296000000.0 0.08322672682532817 -0.9508519337358167
297000000.0 0.07975586930235119 -0.9513075960238557
298000000.0 0.07616362828773587 -0.9518154845596939
299000000.0 0.07264864615347964 -0.9522046667944423
300000000.0 0.06902947461676501 -0.9525429208258227
301000000.0 0.0656481481444015 -0.9530225654500472
302000000.0 0.06209056365950585 -0.9533537939627585
303000000.0 0.05877572752506037 -0.9538434508221578
304000000.0 0.055189820477427654 -0.954173449728141
305000000.0 0.05180507633496576 -0.9546272466685328
306000000.0 0.048305445387472 -0.9547828072487596
307000000.0 0.04474896398507393 -0.9551870763526099
308000000.0 0.04150423386442255 -0.9556622339818354
309000000.0 0.03794300956932946 -0.9559485833276266
310000000.0 0.034613305575527366 -0.9561137953659655
311000000.0 0.031144634712040715 -0.9565172786299349
312000000.0 0.027852958462751584 -0.95684737266976
313000000.0 0.024393283352375086 -0.9570160945501066
314000000.0 0.02108350985209415 -0.9572904139320655
315000000.0 0.01777696232146587 -0.9575758035765425
316000000.0 0.014357568802292017 -0.9578238646467625
317000000.0 0.011009598874639495 -0.9579972852437723
318000000.0 0.007553240802989855 -0.9582153588255139
319000000.0 0.0043055211130709065 -0.9583814737891984
320000000.0 0.001038315539632222 -0.9586382226925424
321000000.0 -0.0022598155540972703 -0.9588217119609891
322000000.0 -0.005464759403298748 -0.9588093028548896
323000000.0 -0.008765705845827138 -0.958977617588425
324000000.0 -0.012007264682876285 -0.9590751576984654
325000000.0 -0.015398042821356803 -0.9591948518655604
326000000.0 -0.018658714642133572 -0.9592894919661215
327000000.0 -0.021856965625368093 -0.9593072094986347
328000000.0 -0.02524734699474045 -0.9593794847418428
329000000.0 -0.028458500281305282 -0.9593681562548465
330000000.0 -0.03160179085219404 -0.9592998042053217
331000000.0 -0.034853733834666445 -0.9594021531273752
332000000.0 -0.038127883858516724 -0.959384326108161
333000000.0 -0.04133784097537615 -0.9595177005343174
334000000.0 -0.04446792409951757 -0.9593609169877052
335000000.0 -0.047562295234436267 -0.9593941519203201
336000000.0 -0.05082893227256669 -0.9593183939067985
337000000.0 -0.05407731939146324 -0.9591756000293528
338000000.0 -0.05723494738230254 -0.9591314883524981
339000000.0 -0.06053033165767748 -0.9591359927699257
340000000.0 -0.06358717200997102 -0.9588545971628151
341000000.0 -0.06676529579034615 -0.9589142071218678
342000000.0 -0.06996551021163018 -0.9587309411134446
343000000.0 -0.07313603416464538 -0.9586245499367766
344000000.0 -0.0760955279567906 -0.9584621013440033
345000000.0 -0.07927249958150022 -0.9583720892533666
346000000.0 -0.0822689439996048 -0.9581307094085626
347000000.0 -0.08546249905118204 -0.9579641671352209
348000000.0 -0.08842532437047834 -0.9578840718866016
349000000.0 -0.09162890203831468 -0.9575800720198565
350000000.0 -0.09472710440208643 -0.9573704493972632
351000000.0 -0.09792742161392633 -0.9571189017341076
352000000.0 -0.1010054623423735 -0.9568659709816063
353000000.0 -0.10419061657714945 -0.9565498841385355
354000000.0 -0.10729893531305543 -0.9561695369542563
355000000.0 -0.11053158858987604 -0.9557406400613226
356000000.0 -0.11371687958029404 -0.9554549507866906
357000000.0 -0.11677402559087195 -0.9549377666958742
358000000.0 -0.11986728653166617 -0.9544732173635728
359000000.0 -0.12325324052215747 -0.9540015201879105
360000000.0 -0.1263079374192425 -0.9533700604083063
361000000.0 -0.12952201137384164 -0.9527391302339845
362000000.0 -0.1326773618671493 -0.9519651035871023
363000000.0 -0.1357670187802241 -0.9511510069334115
364000000.0 -0.13891021322300867 -0.9502138510632951
365000000.0 -0.14187998249139147 -0.9493566808346813
366000000.0 -0.14496936191113005 -0.9485206852357093
367000000.0 -0.14789098030204997 -0.9473821251610594
368000000.0 -0.15063205556755851 -0.9462709292871002
369000000.0 -0.15345667201759136 -0.9453228328270314
370000000.0 -0.1561242960928637 -0.9445226634114708
371000000.0 -0.15890135847625395 -0.9437510169520338
372000000.0 -0.1619223327723469 -0.9427912066376122
373000000.0 -0.16499309484451966 -0.9419180816599708
374000000.0 -0.16821597248452533 -0.9407689788021772
375000000.0 -0.1713988298425078 -0.9395041451132153
376000000.0 -0.17465796498618935 -0.9379382477898238
377000000.0 -0.17768753840225737 -0.9361923724941033
378000000.0 -0.18072249929598266 -0.9343554160552918
379000000.0 -0.18358199857178623 -0.9322309194994429
380000000.0 -0.18643814266926934 -0.9299641376837336
381000000.0 -0.18906921168779625 -0.9274626573475806
382000000.0 -0.1911484824209825 -0.9246322296526562
383000000.0 -0.1930105717921659 -0.9218780721967362
384000000.0 -0.19436716349802236 -0.9190880421103427
385000000.0 -0.19548202545980317 -0.9162893229372037
386000000.0 -0.19624049650522707 -0.913570404515536
387000000.0 -0.19659289146657855 -0.9109329803358114
388000000.0 -0.1965015619488813 -0.9087786217391306
389000000.0 -0.19596222358199186 -0.9067882625807244
390000000.0 -0.19544163643923942 -0.905540658185394
391000000.0 -0.1949273635106436 -0.9048056727119255
392000000.0 -0.19440584516294984 -0.9045627943303053
393000000.0 -0.19438952475105287 -0.9047648115900055
394000000.0 -0.19466019811548885 -0.9053370004612735
395000000.0 -0.19537382703515613 -0.90578162826346
396000000.0 -0.19642575865388015 -0.9061923116856386
397000000.0 -0.19780702527791735 -0.9064010856487508
398000000.0 -0.19922113249679155 -0.9065189280116962
399000000.0 -0.200536198424515 -0.9062736804217343
400000000.0 -0.20180838701593865 -0.9057899479697947
401000000.0 -0.2027610088215878 -0.9055056655897342
402000000.0 -0.20353037718861738 -0.9051285104329599
403000000.0 -0.20410545564313415 -0.9050904803834564
404000000.0 -0.20446844665164107 -0.9052260125222562
405000000.0 -0.20496557053930092 -0.9061149561661032
406000000.0 -0.20590585898650302 -0.9071188998962666
407000000.0 -0.2071090314753325 -0.9085923618516925
408000000.0 -0.20896842659506387 -0.9100484341290113
409000000.0 -0.21119588186234922 -0.9115917178114522
410000000.0 -0.2139860286696457 -0.9127911941483071
411000000.0 -0.21712524797412475 -0.913760497251661
412000000.0 -0.22062070764814587 -0.9140151385355297
413000000.0 -0.22413624172061233 -0.9141054286877798
414000000.0 -0.2278982029230484 -0.9135991146078118
415000000.0 -0.2313834299688906 -0.9124392061349894
416000000.0 -0.23463877749923218 -0.9108109433511193
417000000.0 -0.23770859377813888 -0.9086024475958613
418000000.0 -0.2401562737869951 -0.9058986974805028
419000000.0 -0.24144396601890364 -0.9030596659378874
420000000.0 -0.24185044531613806 -0.900307384353754
421000000.0 -0.2413368982959392 -0.8983892816865355
422000000.0 -0.24033726540882808 -0.8976127225077072
423000000.0 -0.23942501656538542 -0.8980501931115847
424000000.0 -0.23919493070364387 -0.8993468377980688
425000000.0 -0.23990900272580815 -0.9011900111614957
426000000.0 -0.2413196505082 -0.903092817434668
427000000.0 -0.24367434725959117 -0.9046622185528052
428000000.0 -0.24625356615635802 -0.9058869526456658
429000000.0 -0.24905879607494188 -0.9067533287868089
430000000.0 -0.2522268825435231 -0.907218396901323
431000000.0 -0.2553261425326414 -0.9074704026922825
432000000.0 -0.25836649769741565 -0.9074536971605197
433000000.0 -0.26167212255118566 -0.9071140530641063
434000000.0 -0.2648091445979049 -0.9064473467149389
435000000.0 -0.2678374757771989 -0.9058012330151268
436000000.0 -0.2709439149195969 -0.904898073069641
437000000.0 -0.2739806052410888 -0.9037743964384151
438000000.0 -0.27695806033357795 -0.902281272762841
439000000.0 -0.2797473974899173 -0.9006766833111695
440000000.0 -0.28227391403821844 -0.8988165333294542
441000000.0 -0.28447795531435843 -0.8967262358155413
442000000.0 -0.286302175557157 -0.8942923253108921
443000000.0 -0.2876277909270881 -0.8919707140017328
444000000.0 -0.2881192313014776 -0.8898103996005537
445000000.0 -0.28823458855753864 -0.8883043263002824
446000000.0 -0.2880428127933939 -0.8873746412982599
447000000.0 -0.28772293361015366 -0.8874468555697466
448000000.0 -0.28803067871236937 -0.8879447007236533
449000000.0 -0.2890307349990471 -0.8888501049390479
450000000.0 -0.29051495834184876 -0.8900270981020512
451000000.0 -0.29257854259826105 -0.89092541599109
452000000.0 -0.29488818305744163 -0.891649678775809
453000000.0 -0.29743272591872993 -0.8921541342390246
454000000.0 -0.30028636337755343 -0.892378393835664
455000000.0 -0.30316130141358916 -0.892300427837429
456000000.0 -0.3059288270656501 -0.891829850903175
457000000.0 -0.30876124689483925 -0.8916230598564193
458000000.0 -0.31159832351937383 -0.8909639733942358
459000000.0 -0.3143947726067538 -0.8901505129371404
460000000.0 -0.3169483657494494 -0.8894035180718581
461000000.0 -0.3194822751556501 -0.8884003200659769
462000000.0 -0.32175008727259646 -0.8875326685401169
463000000.0 -0.3241491912854025 -0.8866917713390283
464000000.0 -0.326412315271017 -0.8860935830948746
465000000.0 -0.32899937219977504 -0.8854041155690378
466000000.0 -0.3316282763924293 -0.8847688230057346
467000000.0 -0.3343765907833528 -0.8840020450440776
468000000.0 -0.33703786055443724 -0.8828751200011576
469000000.0 -0.339760347536971 -0.8817351739809942
470000000.0 -0.34244107355707964 -0.8805344857452319
471000000.0 -0.34518767692020325 -0.879144864228919
472000000.0 -0.3476168228876498 -0.8777566085805841
473000000.0 -0.35003259498151906 -0.8763237752783999
474000000.0 -0.35227810559288547 -0.8748903748268313
475000000.0 -0.35435754517492085 -0.8734874815980739
476000000.0 -0.3566931661359829 -0.8723508706947452
477000000.0 -0.35887104278382853 -0.8713691416796818
478000000.0 -0.36142443584003375 -0.8702643007491417
479000000.0 -0.36397504135348846 -0.8690246942635464
480000000.0 -0.36673120118226576 -0.8678960612088925
481000000.0 -0.3694769578656002 -0.8665497474120597
482000000.0 -0.37233088803161496 -0.8650211475524665
483000000.0 -0.3751273503623233 -0.8634784117390923
484000000.0 -0.37778849085605337 -0.8617593309607716
485000000.0 -0.38064289279972074 -0.8599559695558344
486000000.0 -0.38334906099707555 -0.8580240274439386
487000000.0 -0.386137338007423 -0.8561252770695995
488000000.0 -0.388856428820849 -0.8539236866690971
489000000.0 -0.3914350414073154 -0.8516765695198968
490000000.0 -0.3941912504333637 -0.8493757321430941
491000000.0 -0.3968433003372727 -0.8469511883798382
492000000.0 -0.39955458342407274 -0.8443105613419677
493000000.0 -0.40212142373496557 -0.8416371576347264
494000000.0 -0.4047318099997597 -0.8388142949612819
495000000.0 -0.40725643756677227 -0.8357067637575749
496000000.0 -0.4095362829418947 -0.8323288421852741
497000000.0 -0.4118817934676356 -0.8287757206555593
498000000.0 -0.4138054589074923 -0.8250392349202511
499000000.0 -0.4156709958316493 -0.8211124835999535
500000000.0 -0.41715285099394017 -0.8168486181223761
501000000.0 -0.41834572110574886 -0.8123838411814953
502000000.0 -0.4191152138591848 -0.8078832009981644
503000000.0 -0.4193131105218217 -0.803210292343164
504000000.0 -0.4188825574238405 -0.7983630279696238
505000000.0 -0.4178706794101591 -0.7936312082788272
506000000.0 -0.41607352724595625 -0.7892295554079375
507000000.0 -0.4133606305779647 -0.7850799281464556
508000000.0 -0.4100218116996056 -0.7820074586699916
509000000.0 -0.40635818688445124 -0.7798534900115592
510000000.0 -0.4025110696093984 -0.7789438434380658
511000000.0 -0.39938151732281124 -0.7788410180771734
512000000.0 -0.39676586299524336 -0.7796508628211873
513000000.0 -0.3949269175376249 -0.7805484881036875
514000000.0 -0.3938276366645454 -0.7815142062697955
515000000.0 -0.39299473106535426 -0.7821753648185134
516000000.0 -0.3921301288843559 -0.7826644922143827
517000000.0 -0.3910737848443959 -0.7832310304645114
518000000.0 -0.38991588780457476 -0.7841834959347987
519000000.0 -0.3886119393822344 -0.7856340143343222
520000000.0 -0.38773240064495346 -0.7877067504981392
521000000.0 -0.3874211303304426 -0.7904395849015678
522000000.0 -0.3879773428021604 -0.7930882142862276
523000000.0 -0.3892829410547634 -0.7959764933535004
524000000.0 -0.39143260519731415 -0.7983363129095572
525000000.0 -0.39407926693299106 -0.8001449250684309
526000000.0 -0.3969582689175524 -0.8012043345109163
527000000.0 -0.39983823064760754 -0.801874456965299
528000000.0 -0.40242071363281356 -0.8019794860149625
529000000.0 -0.40472678214075536 -0.801809410462386
530000000.0 -0.40689910340042806 -0.8015148764978373
531000000.0 -0.4085534568269357 -0.8012303762166854
532000000.0 -0.41025644467474276 -0.8011707229741682
533000000.0 -0.4116888266835803 -0.8010821737350647
534000000.0 -0.41338892787862114 -0.8011769870197436
535000000.0 -0.4148675670639534 -0.8012535311666735
536000000.0 -0.4164519708872399 -0.8014324516576743
537000000.0 -0.418120511739485 -0.80168802643603
538000000.0 -0.4196532263463793 -0.8021048160063677
539000000.0 -0.4213254348159994 -0.802710825247821
540000000.0 -0.42316802874064424 -0.803351654318656
541000000.0 -0.42536919076827345 -0.8040970297438922
542000000.0 -0.4277222698789814 -0.8049518512403847
543000000.0 -0.43032869549323655 -0.8055180597596012
544000000.0 -0.4332037166078943 -0.8060674643848129
545000000.0 -0.43611720744659643 -0.8064318220351218
546000000.0 -0.43931138370630285 -0.8065213288851099
547000000.0 -0.44255457827908984 -0.8065870166896424
548000000.0 -0.4457847141611952 -0.8063427394125147
549000000.0 -0.44910684904447795 -0.8058858327032979
550000000.0 -0.4524257204206646 -0.8051335722779596
551000000.0 -0.4556308155215973 -0.8044752971376647
552000000.0 -0.4589227490052408 -0.8035493994154808
553000000.0 -0.46207915391959814 -0.8024918317837524
554000000.0 -0.46510633881936925 -0.8012503087518974
555000000.0 -0.46814426495395645 -0.8000124711606068
556000000.0 -0.4710544433793524 -0.7985276918228136
557000000.0 -0.47403758345512353 -0.7971035107733268
558000000.0 -0.4769689861865317 -0.7954694014789427
559000000.0 -0.4797007400500555 -0.7938415328025167
560000000.0 -0.48238291562511976 -0.7920630926424349
561000000.0 -0.48507756131419066 -0.790305496391097
562000000.0 -0.4877120331000525 -0.7882080459443633
563000000.0 -0.4901330987161151 -0.7862184657085856
564000000.0 -0.4924305505834008 -0.784317431507489
565000000.0 -0.494788030260308 -0.78202704342509
566000000.0 -0.4970229731196676 -0.7800044311593053
567000000.0 -0.49899855933880605 -0.777698422239316
568000000.0 -0.501039308452843 -0.7753989446609496
569000000.0 -0.5028512376719673 -0.7732335091686048
570000000.0 -0.5045041192314491 -0.7708287924069162
571000000.0 -0.5060368723177635 -0.7685588477174161
572000000.0 -0.5075420272499473 -0.766309413989373
573000000.0 -0.5089704676327782 -0.7640835728277484
574000000.0 -0.5102190524855366 -0.7618132813898416
575000000.0 -0.5114097380432976 -0.7595871600786321
576000000.0 -0.5125988691115987 -0.7573642736715588
577000000.0 -0.5135719650396617 -0.7551342402795064
578000000.0 -0.5145051879756134 -0.7529734496452002
579000000.0 -0.5153933358242253 -0.7507701610342405
580000000.0 -0.5160063033751554 -0.7486439547649186
581000000.0 -0.5167101966713544 -0.7465287800061458
582000000.0 -0.5171165317625468 -0.7444856691866668
583000000.0 -0.5176550247846036 -0.7425349176372354
584000000.0 -0.5177892489181423 -0.7404161661854425
585000000.0 -0.5178977630023409 -0.7386296851205121
586000000.0 -0.5177990078567013 -0.7369073468981208
587000000.0 -0.5175688504223435 -0.7354760773395598
588000000.0 -0.5175134950046794 -0.7342832058653914
589000000.0 -0.5176367682821725 -0.7332013003825817
590000000.0 -0.5176296266965569 -0.7322570795759871
591000000.0 -0.5178813005316634 -0.7313455156182774
592000000.0 -0.5182727243072849 -0.7303429932295177
593000000.0 -0.5185900264876553 -0.7292006696987007
594000000.0 -0.518931428338788 -0.7278943212072451
595000000.0 -0.5190493538645302 -0.7267410928190953
596000000.0 -0.5190495985320598 -0.7253293279199308
597000000.0 -0.5187186728025392 -0.7240841559089517
598000000.0 -0.5182436654270034 -0.722858642569544
599000000.0 -0.517644668692429 -0.7220617359876577
600000000.0 -0.5166855360050114 -0.7214940340097967
601000000.0 -0.515815268614517 -0.721160623829343
602000000.0 -0.5149007018648695 -0.7212733105676944
603000000.0 -0.5141733401004994 -0.7217741793893186
604000000.0 -0.5136176581274271 -0.7225046223601581
605000000.0 -0.5135051727005631 -0.7234084732526418
606000000.0 -0.5136617672049394 -0.7243462205162977
607000000.0 -0.5141615449570879 -0.7253121042304312
608000000.0 -0.5148547972289489 -0.7262272140850173
609000000.0 -0.5157525447540953 -0.7270224043965686
610000000.0 -0.5166636184148334 -0.7273967681000868
611000000.0 -0.5176872821356435 -0.7279951921524728
612000000.0 -0.5186085197847984 -0.728254453229955
613000000.0 -0.5193624593824443 -0.7285795424152753
614000000.0 -0.5200790529400787 -0.7290316211487438
615000000.0 -0.5206507362449799 -0.7294330885213791
616000000.0 -0.5212891236693212 -0.7302900839645537
617000000.0 -0.5220195210429145 -0.7313111609028509
618000000.0 -0.5229743593376283 -0.7324552094779129
619000000.0 -0.5242141700901922 -0.7338157498239246
620000000.0 -0.5256400862607502 -0.7351853677707603
621000000.0 -0.5275127983145046 -0.736466844128658
622000000.0 -0.5296565267849941 -0.737675794039532
623000000.0 -0.5320949399698014 -0.738706915886181
624000000.0 -0.5347024647839328 -0.7395140854980994
625000000.0 -0.5373909670989545 -0.7400256793901178
626000000.0 -0.5401390480787559 -0.7403269728172273
627000000.0 -0.542923599479547 -0.7404043609043686
628000000.0 -0.5458996059275691 -0.7401421039597058
629000000.0 -0.5485999030959602 -0.7397177727328302
630000000.0 -0.5514651300194104 -0.7389912764007598
631000000.0 -0.5540922880529916 -0.7383711437577936
632000000.0 -0.5567924586242496 -0.7374421274781461
633000000.0 -0.5593249725046957 -0.7364160067893543
634000000.0 -0.5617151355571872 -0.7351006270720702
635000000.0 -0.5639962259713621 -0.7338896615068526
636000000.0 -0.5663019023647797 -0.732492622107194
637000000.0 -0.5683906405413114 -0.7309415757962044
638000000.0 -0.5704699434138853 -0.7293934689662859
639000000.0 -0.5723483602927298 -0.727570877606952
640000000.0 -0.5741586265700623 -0.7257347592306471
641000000.0 -0.5757319657573527 -0.7237344101586516
642000000.0 -0.5771336913640975 -0.7219057068398517
643000000.0 -0.5784984272430881 -0.7198283092937567
644000000.0 -0.5794230872069747 -0.7176880253079998
645000000.0 -0.5801326566046067 -0.7156427166043354
646000000.0 -0.5808112667923632 -0.713724219983197
647000000.0 -0.5809595339264656 -0.7117844193925246
648000000.0 -0.5810613260103715 -0.7100339559079174
649000000.0 -0.5809673107380174 -0.7085157774567276
650000000.0 -0.5807394452617712 -0.7070342138693635
651000000.0 -0.5804936081297468 -0.7059621666021274
652000000.0 -0.5801660097719319 -0.7052337883734788
653000000.0 -0.579764175277044 -0.7046389649469571
654000000.0 -0.5797270987223824 -0.7042096152524006
655000000.0 -0.5797563376891322 -0.7040425682877832
656000000.0 -0.5796863304595182 -0.7040841324023476
657000000.0 -0.5802564305886383 -0.7040654788318371
658000000.0 -0.5807808210614211 -0.7043035601932038
659000000.0 -0.5813554813362629 -0.7043439201999986
660000000.0 -0.582185071501043 -0.7045270132117704
661000000.0 -0.5833267692464671 -0.7043786802172316
662000000.0 -0.5844009316639814 -0.7042821062466514
663000000.0 -0.5855505819388317 -0.7040211062060032
664000000.0 -0.5866959478864257 -0.703563833082787
665000000.0 -0.5880445458109008 -0.7030809524363189
666000000.0 -0.5890203659026387 -0.7025649846300336
667000000.0 -0.5903373876397295 -0.7019602958925022
668000000.0 -0.5914845270667815 -0.701221388377584
669000000.0 -0.5925403549617059 -0.7004518473683641
670000000.0 -0.5936209997516676 -0.6997056482898029
671000000.0 -0.5946992458237641 -0.6988055493283468
672000000.0 -0.5955309102137741 -0.6980001466217137
673000000.0 -0.5964488070704512 -0.6971342118679166
674000000.0 -0.5973305530510645 -0.696119423640197
675000000.0 -0.5981436053092998 -0.6952220704168427
676000000.0 -0.5987885866043676 -0.6942460146328024
677000000.0 -0.5995793008855633 -0.6934022728645675
678000000.0 -0.600142858182141 -0.6925346611170144
679000000.0 -0.6008194363503677 -0.6916667155602283
680000000.0 -0.6012949905089592 -0.690790261505224
681000000.0 -0.6020037409999739 -0.6900500445346355
682000000.0 -0.602698926795711 -0.6893487674695085
683000000.0 -0.603467015359431 -0.6886026463796215
684000000.0 -0.6041517808476191 -0.6877668765832029
685000000.0 -0.6049023981844818 -0.6869142458368678
686000000.0 -0.60580688420375 -0.6858107080928466
687000000.0 -0.606729538434401 -0.6848758348479435
688000000.0 -0.607403003866456 -0.6836938390123893
689000000.0 -0.6080920749935956 -0.6823884713415583
690000000.0 -0.6086994121787368 -0.6809697251184544
691000000.0 -0.6092410595968238 -0.6796199696287243
692000000.0 -0.6095160865928424 -0.6781301398043975
693000000.0 -0.609689020401665 -0.6765708304403895
694000000.0 -0.6095351673896504 -0.6751357217367941
695000000.0 -0.6094911751818627 -0.6736305768586276
696000000.0 -0.6091236153057437 -0.6722765608859217
697000000.0 -0.608722150751649 -0.6710993030357505
698000000.0 -0.6079078059184156 -0.6700631941170112
699000000.0 -0.6071688470527932 -0.6691723310451986
700000000.0 -0.606422547865472 -0.6685407941821454
701000000.0 -0.6055704195165373 -0.6680232452572773
702000000.0 -0.6048238622237425 -0.6677744140918471
703000000.0 -0.6039120894482021 -0.6677341642846422
704000000.0 -0.6034186222776189 -0.6678438726693011
705000000.0 -0.602943166679423 -0.6680576050883454
706000000.0 -0.6026611090624497 -0.668342013912708
707000000.0 -0.6024590295599529 -0.6687105322710732
708000000.0 -0.6025957613727562 -0.6691016505206792
709000000.0 -0.6025536905116998 -0.6693703888411321
710000000.0 -0.6029045715625532 -0.6696564214737023
711000000.0 -0.6031174076367309 -0.6698452107814007
712000000.0 -0.6034185687585001 -0.6700566810886772
713000000.0 -0.603763828141507 -0.670325858825408
714000000.0 -0.6039905224823621 -0.6704417828689632
715000000.0 -0.6042912261465626 -0.6706467846146801
716000000.0 -0.6046914856701273 -0.6711303770087865
717000000.0 -0.6052093173035723 -0.6713022793963723
718000000.0 -0.6057979839123087 -0.6716935310955826
719000000.0 -0.606444500742378 -0.6721012623623083
720000000.0 -0.6073377543394456 -0.672623098574753
721000000.0 -0.6081358201942267 -0.6729865973900612
722000000.0 -0.6091899356404094 -0.6734275382003015
723000000.0 -0.6103544034588161 -0.6736217704217697
724000000.0 -0.6117790350885927 -0.6738907599737053
725000000.0 -0.6130869279137623 -0.6739576764941189
726000000.0 -0.6147184870011562 -0.673752706130012
727000000.0 -0.6162475654548542 -0.6735580875264636
728000000.0 -0.617807135981598 -0.6729668454542418
729000000.0 -0.6192625550798521 -0.6724660130158402
730000000.0 -0.620822340568502 -0.6718110326405924
731000000.0 -0.6220863506515367 -0.6709282722386835
732000000.0 -0.6236033390196148 -0.6699323688189768
733000000.0 -0.6249326235494457 -0.6688530320247343
734000000.0 -0.6259873641456007 -0.6677432056884348
735000000.0 -0.6271698150289503 -0.666463326053395
736000000.0 -0.6281709765455508 -0.6651806754833147
737000000.0 -0.6290197646692236 -0.6636522803159942
738000000.0 -0.6299007058081221 -0.6624224920546304
739000000.0 -0.6305964298497291 -0.6610143082938362
740000000.0 -0.631221732427012 -0.6597629161126438
741000000.0 -0.631776089271381 -0.6583382728468662
742000000.0 -0.6322050199339685 -0.6568586045371095
743000000.0 -0.6325515504591566 -0.6555309355300538
744000000.0 -0.632810894926247 -0.6542932293848117
745000000.0 -0.6331411499361908 -0.6529900903169769
746000000.0 -0.6332499929260902 -0.6516778963188207
747000000.0 -0.6334880683955574 -0.6504543214055056
748000000.0 -0.633589259026029 -0.6491941676307021
749000000.0 -0.633609295641713 -0.6480731168768147
750000000.0 -0.633564515554914 -0.6468866923729508
751000000.0 -0.6334395745430929 -0.6456371855798084
752000000.0 -0.6331387878423201 -0.644504348620974
753000000.0 -0.6329304449886468 -0.643581709422225
754000000.0 -0.632616229443063 -0.642435624635999
755000000.0 -0.6321501716173903 -0.6417415072243345
756000000.0 -0.6318369122851646 -0.6409579484632744
757000000.0 -0.6314158540052476 -0.6404252095331849
758000000.0 -0.631071282206495 -0.6399447254867672
759000000.0 -0.6306586378614992 -0.6395100706201347
760000000.0 -0.6305195325718344 -0.6393959318817407
761000000.0 -0.6302821482472257 -0.6391428444526379
762000000.0 -0.6301915132217321 -0.6389999829634044
763000000.0 -0.6301200616342743 -0.6390410526618603
764000000.0 -0.6303449403845082 -0.6390744078990575
765000000.0 -0.6306353621431526 -0.6390542585926441
766000000.0 -0.6309522422503048 -0.6391391966985002
767000000.0 -0.6314072725496814 -0.6390108994610996
768000000.0 -0.6320243102584702 -0.63886334237248
769000000.0 -0.6325682286491597 -0.638727593008907
770000000.0 -0.6333273616694035 -0.6385170978867574
771000000.0 -0.6339656380349482 -0.6382360814946276
772000000.0 -0.6346561185199071 -0.6378298233226993
773000000.0 -0.6354629636101129 -0.6375406915602838
774000000.0 -0.6361948164960424 -0.637124519364472
775000000.0 -0.6369109986651731 -0.636580711035067
776000000.0 -0.6376041236713196 -0.6361080789321633
777000000.0 -0.6384968224151898 -0.6356376982062539
778000000.0 -0.6392217526953146 -0.6351252230814677
779000000.0 -0.6399130869995971 -0.6345280444460074
780000000.0 -0.6405718373577078 -0.6340975858304876
781000000.0 -0.6414656284569068 -0.6336135340859262
782000000.0 -0.6422104603638132 -0.6329991145412529
783000000.0 -0.6431981050005349 -0.6323429238712198
784000000.0 -0.6440751837909496 -0.6317834164659378
785000000.0 -0.6449473473659688 -0.6312155626185804
786000000.0 -0.645936833940565 -0.6305499701847025
787000000.0 -0.6469597742151937 -0.629905206223985
788000000.0 -0.6480843421355353 -0.6290892580697833
789000000.0 -0.6490579382055599 -0.6282808781023638
790000000.0 -0.6502217126233543 -0.6275400427505385
791000000.0 -0.6512876541557272 -0.6265993406698076
792000000.0 -0.6525186677200089 -0.625648971706484
793000000.0 -0.6535347837475404 -0.6246731367235135
794000000.0 -0.6546590255172456 -0.6235748495461177
795000000.0 -0.6558441140903121 -0.6223815710175162
796000000.0 -0.6568324653995862 -0.6211624482285695
797000000.0 -0.6580022831964558 -0.6198999917884621
798000000.0 -0.6591435740607513 -0.6183898076706994
799000000.0 -0.6601998315466063 -0.6170126506275593
800000000.0 -0.6612994973032087 -0.6154949636105768
801000000.0 -0.6620482332242119 -0.6140400143346796
802000000.0 -0.6630229493645218 -0.6122970296565091
803000000.0 -0.6638341633949194 -0.6106071728567775
804000000.0 -0.66459990946006 -0.6088658703921023
805000000.0 -0.6652916615351149 -0.6071005767781359
806000000.0 -0.6658127433490019 -0.605243732095411
807000000.0 -0.6664755744954125 -0.603416847502863
808000000.0 -0.6668203169148367 -0.6015499037121718
809000000.0 -0.6671618732905993 -0.5996031246483613
810000000.0 -0.6674985067402123 -0.5977308003681506
811000000.0 -0.6677501401290644 -0.5959436396249314
812000000.0 -0.6678775662639351 -0.5940832756459451
813000000.0 -0.6678642664197568 -0.5923720557550907
814000000.0 -0.6678480582113344 -0.5905696369114507
815000000.0 -0.667707869098627 -0.5887077472974924
816000000.0 -0.6675543313937654 -0.5870392352870251
817000000.0 -0.6673433978499959 -0.5854357163590779
818000000.0 -0.6671416855878951 -0.5837861836094851
819000000.0 -0.6668652904104966 -0.5823080072785044
820000000.0 -0.6665697556509261 -0.580883927128696
821000000.0 -0.666294663833912 -0.5795269204730401
822000000.0 -0.6659958659584356 -0.5781586518515938
823000000.0 -0.6657279204334281 -0.5768881222990329
824000000.0 -0.6653076512641896 -0.57552966048895
825000000.0 -0.6651835168984976 -0.5743556817713301
826000000.0 -0.6647973579571564 -0.5732749080048901
827000000.0 -0.6645446590445719 -0.572092614948923
828000000.0 -0.6642891620485942 -0.5709346045914904
829000000.0 -0.6639871275445501 -0.5697574041757778
830000000.0 -0.6637444486346006 -0.5686761072004736
831000000.0 -0.6634803968338433 -0.5674881004293897
832000000.0 -0.6631975260146066 -0.5664877990663019
833000000.0 -0.6628303798364327 -0.5654893256636528
834000000.0 -0.662503285921386 -0.5644365302546037
835000000.0 -0.6621383298225768 -0.563337477775828
836000000.0 -0.6617790633409212 -0.5622758783971675
837000000.0 -0.6614170570696671 -0.561515887096387
838000000.0 -0.6609504592541371 -0.5605425389062613
839000000.0 -0.6605199698055886 -0.5597609616461501
840000000.0 -0.6601401999777982 -0.5590049356748782
841000000.0 -0.6597429220305333 -0.5582816664164262
842000000.0 -0.6592671675037611 -0.5575821275015626
843000000.0 -0.65880731266684 -0.5570964057192811
844000000.0 -0.6585300982033311 -0.5566161262177893
845000000.0 -0.6581664496771191 -0.5561373616055403
846000000.0 -0.6580826810825079 -0.5557334696267834
847000000.0 -0.6577844130339302 -0.5555389828286332
848000000.0 -0.6575739343019581 -0.5552073750325899
849000000.0 -0.6575896852008697 -0.5549882075181978
850000000.0 -0.6575345839067849 -0.5546601909118465
851000000.0 -0.6577814761379767 -0.5544773864066576
852000000.0 -0.6579292174070094 -0.5542411508409754
853000000.0 -0.6582794993792007 -0.5539633708818454
854000000.0 -0.6585298802167107 -0.5536751321883637
855000000.0 -0.6589951730721078 -0.5533895677340284
856000000.0 -0.6593192651575979 -0.552946198677174
857000000.0 -0.6597903327535662 -0.5524830507486503
858000000.0 -0.6603907359940175 -0.5520890183110612
859000000.0 -0.6607126759649624 -0.5514385592321956
860000000.0 -0.6612054804608674 -0.5509788127936495
861000000.0 -0.6616766690302627 -0.55030387798791
862000000.0 -0.6621734682513378 -0.5495967733096511
863000000.0 -0.6625268404643312 -0.5488617525902585
864000000.0 -0.6630262245697383 -0.5481305934919072
865000000.0 -0.6633781400462286 -0.5473799393675907
866000000.0 -0.6636663180365769 -0.5464728114801873
867000000.0 -0.6639777064084448 -0.5458519595951061
868000000.0 -0.6642906983826903 -0.545102796914596
869000000.0 -0.6645623525913129 -0.5443034610537985
870000000.0 -0.6648438958640691 -0.5435791622482726
871000000.0 -0.6650148509055251 -0.5427634756322672
872000000.0 -0.6654155419305682 -0.5421494758812139
873000000.0 -0.6655763269486432 -0.5413115108478996
874000000.0 -0.6656888164848566 -0.5406494396171252
875000000.0 -0.6659034132881713 -0.5399758575797069
876000000.0 -0.6662886606008172 -0.5394658199329383
877000000.0 -0.6662814903712634 -0.5386302573917507
878000000.0 -0.6666358625913579 -0.5382531663079223
879000000.0 -0.666873070189035 -0.5375882847882809
880000000.0 -0.6670750030754578 -0.5370786375099654
881000000.0 -0.6672623204542243 -0.5364437291242589
882000000.0 -0.6675165756062078 -0.5359313593395935
883000000.0 -0.6677728773662317 -0.5353526735983725
884000000.0 -0.6679946464581641 -0.5346912799877855
885000000.0 -0.6682939726399736 -0.5341539075623293
886000000.0 -0.6686298983315919 -0.5337778709673949
887000000.0 -0.6690308785523061 -0.5332951091935137
888000000.0 -0.6692176493093572 -0.5328343666375872
889000000.0 -0.6695429563050035 -0.5325189324902245
890000000.0 -0.6699290486278505 -0.532113258069388
891000000.0 -0.6703727861144411 -0.5315298175988177
892000000.0 -0.6708593335002146 -0.5310342271544374
893000000.0 -0.6712038536970429 -0.5306166555413702
894000000.0 -0.6716038793560547 -0.5301553256616922
895000000.0 -0.6721574425537098 -0.5297268909926712
896000000.0 -0.6726353060870871 -0.5291601509266198
897000000.0 -0.6731027737216182 -0.5287216292670526
898000000.0 -0.6736775479825606 -0.5282127295964764
899000000.0 -0.6742659693361259 -0.527660005743138
900000000.0 -0.6747883574838628 -0.5270517933457121
901000000.0 -0.6753834309864549 -0.5265733290700654
902000000.0 -0.6759663809953524 -0.5257799254395731
903000000.0 -0.676522497173802 -0.5252283809914817
904000000.0 -0.6771294273990528 -0.5243956566506737
905000000.0 -0.6776625723457401 -0.5236791900972334
906000000.0 -0.6781670617698451 -0.5229476910029394
907000000.0 -0.6786624001048969 -0.5221474033114584
908000000.0 -0.6790500839071911 -0.5212565455419759
909000000.0 -0.6795251612718893 -0.520479750747554
910000000.0 -0.6799630213099823 -0.5193914756258701
911000000.0 -0.6803465678336774 -0.5185252820684985
912000000.0 -0.6805031620412889 -0.5177309977947943
913000000.0 -0.6809043105583753 -0.5167374449493083
914000000.0 -0.6808967542468993 -0.5159224061631447
915000000.0 -0.6810345779742976 -0.5149312866191907
916000000.0 -0.6811149676049874 -0.5141144948523395
917000000.0 -0.6811356061568594 -0.5134394231785279
918000000.0 -0.6811053523115234 -0.5125494483238271
919000000.0 -0.681047221297409 -0.5118414151736355
920000000.0 -0.6808277102508778 -0.5111253701621031
921000000.0 -0.6806865538510356 -0.5104939462563336
922000000.0 -0.6805877583854022 -0.5100436565711459
923000000.0 -0.6803571135449715 -0.509562144478347
924000000.0 -0.6801119114301121 -0.5091079183997236
925000000.0 -0.6799510413920544 -0.5088430767693041
926000000.0 -0.6797727518365446 -0.508534028113176
927000000.0 -0.6796007310762031 -0.5083476617002056
928000000.0 -0.6795036535775789 -0.5081694284957406
929000000.0 -0.6793164950796297 -0.508175249210484
930000000.0 -0.67932775454187 -0.5080904071604777
931000000.0 -0.6792012132962651 -0.5082526116094168
932000000.0 -0.6790991857701965 -0.5082635764204502
933000000.0 -0.6791950812651211 -0.5084520761873453
934000000.0 -0.679297914834596 -0.5085053044465706
935000000.0 -0.6794457845185178 -0.5087734057829876
936000000.0 -0.6797277219257335 -0.5090872721683639
937000000.0 -0.6799854881900622 -0.5093553035698115
938000000.0 -0.6803465234196683 -0.5096425196389237
939000000.0 -0.6808989507488773 -0.5099573868551096
940000000.0 -0.681258576215179 -0.5103017866776118
941000000.0 -0.681794113959301 -0.5105417117586832
942000000.0 -0.6823919314811672 -0.5106887119895342
943000000.0 -0.6832363384142806 -0.5109407941808876
944000000.0 -0.683876596841426 -0.5112080385931986
945000000.0 -0.6847186635359079 -0.5114200082133401
946000000.0 -0.6856835912548981 -0.5114604725488399
947000000.0 -0.6865043706279811 -0.5114136038599802
948000000.0 -0.687437742845354 -0.5114031050341165
949000000.0 -0.6883077848660554 -0.5113538813272013
950000000.0 -0.6892772736236663 -0.5111428247365905
951000000.0 -0.690245832862818 -0.5110298850260503
952000000.0 -0.691163545887811 -0.5106897016224341
953000000.0 -0.6920491597506357 -0.5104151312538173
954000000.0 -0.6929377897095501 -0.5101517401834823
955000000.0 -0.6938774567715849 -0.50975413896065
956000000.0 -0.6947327798911804 -0.5093698602056044
957000000.0 -0.6955441091454666 -0.5088145712850606
958000000.0 -0.6962815236820563 -0.5084160506253331
959000000.0 -0.6971140869945217 -0.5079423215842941
960000000.0 -0.6977748942342712 -0.5074141601761228
961000000.0 -0.6984309217074188 -0.5069427722386202
962000000.0 -0.6991486676644768 -0.5064857136507587
963000000.0 -0.6996387343433866 -0.5059424324311509
964000000.0 -0.7002567179253211 -0.5054798003758607
965000000.0 -0.70076484076345 -0.5049603595578854
966000000.0 -0.7013744031292315 -0.5044815851271398
967000000.0 -0.7017905999923325 -0.5041145856663942
968000000.0 -0.7022475293473288 -0.5036143275195614
969000000.0 -0.7027251896820461 -0.5033276815632162
970000000.0 -0.7030476131768052 -0.5029611248788475
971000000.0 -0.7034378322784426 -0.5027115114597934
972000000.0 -0.7039076239636198 -0.5024053114581859
973000000.0 -0.704324144838006 -0.5021790863987591
974000000.0 -0.7047638944066628 -0.5019264941913852
975000000.0 -0.7052709859361149 -0.5018607701829747
976000000.0 -0.7056378670750973 -0.5015681228056577
977000000.0 -0.7062766886617639 -0.5015222561110441
978000000.0 -0.7068473280425115 -0.5014066630268333
979000000.0 -0.7073968018065524 -0.5011722428239537
980000000.0 -0.7080067730541219 -0.501112206858664
981000000.0 -0.7086271683576817 -0.5009963707303123
982000000.0 -0.709287072694017 -0.5008949057238063
983000000.0 -0.7100130456276149 -0.5007401189637867
984000000.0 -0.7108189543954005 -0.5005564508380811
985000000.0 -0.711748792937457 -0.5003828949736076
986000000.0 -0.7124179711867159 -0.5002459462420963
987000000.0 -0.7132887867384187 -0.4998737568274399
988000000.0 -0.7140670805024064 -0.4996696521973101
989000000.0 -0.7150410467976461 -0.4993683975303705
990000000.0 -0.7159599952306587 -0.499067305212073
991000000.0 -0.7168431570191842 -0.49868985433460616
992000000.0 -0.7177893564048502 -0.4983281100970349
993000000.0 -0.7186163062000592 -0.4978950186406774
994000000.0 -0.7196151529759639 -0.49748381668427016
995000000.0 -0.7204628569055508 -0.4970613410740704
996000000.0 -0.7214498431373858 -0.4964507643342957
997000000.0 -0.7222810976974062 -0.49585438657422287
998000000.0 -0.7231251063886901 -0.495221375973851
999000000.0 -0.7239525750832343 -0.4947167297189576
1000000000.0 -0.7248930126522535 -0.49400100606676595
1001000000.0 -0.7257033625382568 -0.49335115508804817
1002000000.0 -0.7264882407891626 -0.4927865693756023
1003000000.0 -0.7273765643701344 -0.4919762571613472
1004000000.0 -0.7281359768354779 -0.49120118799602275
1005000000.0 -0.7288943673165198 -0.49058678318840165
1006000000.0 -0.7295694109710459 -0.4897140089982719
1007000000.0 -0.7302562785164008 -0.4889814766803447
1008000000.0 -0.7310194183724354 -0.48816768035971114
1009000000.0 -0.7315674856156273 -0.4873225762145375
1010000000.0 -0.7322024241471191 -0.48643831892721157
1011000000.0 -0.7327752879279371 -0.485618221065792
1012000000.0 -0.7333490346733127 -0.48478701587404155
1013000000.0 -0.7338993569590369 -0.48390375451958256
1014000000.0 -0.7344290472767498 -0.48298342320326687
1015000000.0 -0.7349591865854619 -0.4821444599390706
1016000000.0 -0.7354639170329407 -0.481218646286106
1017000000.0 -0.7359253393549452 -0.48038252738952225
1018000000.0 -0.736345603494862 -0.4794430159121051
1019000000.0 -0.7367509489231758 -0.4785018452026058
1020000000.0 -0.7370725776568025 -0.47765776473758786
1021000000.0 -0.7374738552126855 -0.47681800056538326
1022000000.0 -0.7378524300564301 -0.4759367718420828
1023000000.0 -0.7381630005074745 -0.47505099657725336
1024000000.0 -0.7383502417900201 -0.4741785032386232
1025000000.0 -0.7387990682119246 -0.47340447703612126
1026000000.0 -0.739031438731366 -0.4724768037285665
1027000000.0 -0.7392459538995864 -0.4714900766451091
1028000000.0 -0.7394416009246674 -0.4706197075119921
1029000000.0 -0.739594690429195 -0.4698732015283961
1030000000.0 -0.7397518081122848 -0.4690225510864215
1031000000.0 -0.7400385809604355 -0.46816221817913184
1032000000.0 -0.7401451410724895 -0.4672664591204196
1033000000.0 -0.7403113509760562 -0.4664893853304123
1034000000.0 -0.7403913576004064 -0.4655142983738056
1035000000.0 -0.7405387887053364 -0.46474297808667003
1036000000.0 -0.7406118069804347 -0.4638891084656354
1037000000.0 -0.7407154567597196 -0.4630673656982199
1038000000.0 -0.7407909692571794 -0.46232410667301854
1039000000.0 -0.7408223156000355 -0.4615195018806085
1040000000.0 -0.7408238175692871 -0.4608114920537277
1041000000.0 -0.7407366378153327 -0.4600494756551208
1042000000.0 -0.7408469006683158 -0.45927682296759403
1043000000.0 -0.7408731957378905 -0.4585975827707826
1044000000.0 -0.7407831427364352 -0.4577016777553554
1045000000.0 -0.7406927560498272 -0.4571362414888686
1046000000.0 -0.7407836524100149 -0.456368918776245
1047000000.0 -0.7406810716707382 -0.4557697979586158
1048000000.0 -0.740762108785588 -0.4551365150343832
1049000000.0 -0.7407161894776406 -0.4545592562098716
1050000000.0 -0.7407279164475333 -0.4539593750148477
1051000000.0 -0.7407171073184091 -0.45322680352512057
1052000000.0 -0.7407522449120347 -0.45265363038544504
1053000000.0 -0.7407828563628992 -0.4520538425931898
1054000000.0 -0.7409335313788369 -0.4513466007451488
1055000000.0 -0.7408837835226103 -0.45067485308793553
1056000000.0 -0.7409250304915184 -0.4500978160155105
1057000000.0 -0.740986805355688 -0.44957342624678076
1058000000.0 -0.7411409944103338 -0.4487366313306989
1059000000.0 -0.7412441074129761 -0.44810907547095535
1060000000.0 -0.7412932110604377 -0.4475449211028801
1061000000.0 -0.7414572551413726 -0.4468061295286809
1062000000.0 -0.7414428108896791 -0.44618796286400547
1063000000.0 -0.7415210607672374 -0.44545584933569543
1064000000.0 -0.7415602661917635 -0.4448169402642645
1065000000.0 -0.7416814035821961 -0.4440955112338103
1066000000.0 -0.7417148623210781 -0.4433528792014897
1067000000.0 -0.7417875799561527 -0.4426179849507501
1068000000.0 -0.7419407729268419 -0.4418253885593227
1069000000.0 -0.7419365019388345 -0.44133107812491296
1070000000.0 -0.7420594208309657 -0.4403704632002235
1071000000.0 -0.7418844470302803 -0.4396389376409547
1072000000.0 -0.7419803159727156 -0.438945536738182
1073000000.0 -0.7419843572342529 -0.4382264446405854
1074000000.0 -0.7419380497115557 -0.43726045240560824
1075000000.0 -0.7420075520381555 -0.4365764551687778
1076000000.0 -0.7418683074511523 -0.4358300612062102
1077000000.0 -0.7418482613891241 -0.43499590136840693
1078000000.0 -0.741723993897496 -0.4341186685814059
1079000000.0 -0.7416176023567979 -0.4335362902174428
1080000000.0 -0.7415131311017025 -0.4327084503142498
1081000000.0 -0.7413029119443993 -0.4320062170409198
1082000000.0 -0.7412143213704426 -0.4311513357494617
1083000000.0 -0.7409890038732342 -0.4304449060362305
1084000000.0 -0.7407905163487754 -0.42959432646273227
1085000000.0 -0.7407354198748837 -0.42880776306592344
1086000000.0 -0.7406197066702574 -0.4282258822286853
1087000000.0 -0.7403233044842327 -0.42750800668579086
1088000000.0 -0.740226960920758 -0.4266995336813587
1089000000.0 -0.7398541083694715 -0.42592773094732267
1090000000.0 -0.7396289397949297 -0.42534327754861617
1091000000.0 -0.7393803176994181 -0.4246288242325889
1092000000.0 -0.739102913123465 -0.42416800489395795
1093000000.0 -0.7389102869416964 -0.4234701364743339
1094000000.0 -0.7386528873372208 -0.42280544537457254
1095000000.0 -0.7385254402928305 -0.42221158184426283
1096000000.0 -0.7384054281516668 -0.4215790538766857
1097000000.0 -0.7379997448701925 -0.4209759782007757
1098000000.0 -0.737789339078727 -0.42054624970363
1099000000.0 -0.7376590796908106 -0.4199015948276447
1100000000.0 -0.7375107497201977 -0.4193146785295002
1101000000.0 -0.7371974446856977 -0.41886564391714626
1102000000.0 -0.7370599649738203 -0.4183021345141098
1103000000.0 -0.736906158373313 -0.41769401884955104
1104000000.0 -0.7365834346017096 -0.41722799588984555
1105000000.0 -0.7366414071864171 -0.4167672426930241
1106000000.0 -0.7363169166509342 -0.4162001024685731
1107000000.0 -0.7363113040823651 -0.4156604929339165
1108000000.0 -0.7361773286071525 -0.4150739003155484
1109000000.0 -0.7360685888546505 -0.41464899395963284
1110000000.0 -0.7359579000946063 -0.4141970353723677
1111000000.0 -0.7358367034338714 -0.4136756554530241
1112000000.0 -0.7356664121970026 -0.413131568703262
1113000000.0 -0.7357070134739633 -0.4125958132857819
1114000000.0 -0.7355096234265983 -0.4120614993073688
1115000000.0 -0.7353589722109432 -0.41149221141464043
1116000000.0 -0.7351748004101577 -0.41100125648413427
1117000000.0 -0.7352229245894316 -0.4105021582534604
1118000000.0 -0.7350171996067749 -0.41013320105492207
1119000000.0 -0.735085245030733 -0.4096404275614185
1120000000.0 -0.7348068588528323 -0.40907622585908177
1121000000.0 -0.7347750155383853 -0.40860221083267956
1122000000.0 -0.7346987049543826 -0.40805645904527804
1123000000.0 -0.7346228698024052 -0.40765955072033155
1124000000.0 -0.7345026471603747 -0.407223568866469
1125000000.0 -0.7344629117807352 -0.4065895127007563
1126000000.0 -0.7344234475318595 -0.4063052569716958
1127000000.0 -0.7342270647502261 -0.40572401035545075
1128000000.0 -0.7342971576106029 -0.40530220799514083
1129000000.0 -0.7341295133993917 -0.40482409293462734
1130000000.0 -0.7342805632873863 -0.40426561040302567
1131000000.0 -0.7341355514942765 -0.403779881431472
1132000000.0 -0.7341363807902841 -0.40331807056117575
1133000000.0 -0.7341207869455064 -0.4027659409087409
1134000000.0 -0.7341997962581271 -0.4023832071504448
1135000000.0 -0.7341599346776086 -0.40175478265601805
1136000000.0 -0.7340393861754116 -0.40133774751445556
1137000000.0 -0.7340587240498686 -0.4008188438359179
1138000000.0 -0.7341849866954026 -0.40023158965581185
1139000000.0 -0.7341060800713595 -0.3997882208559148
1140000000.0 -0.7340383255659383 -0.399338088730397
1141000000.0 -0.7340734851671332 -0.3987521129139193
1142000000.0 -0.734199849071105 -0.39821274750034513
1143000000.0 -0.7341018405129605 -0.39762002590127393
1144000000.0 -0.7341608133596289 -0.39713217034605514
1145000000.0 -0.7340102002846758 -0.39660412045993376
1146000000.0 -0.7340156066027401 -0.3960181829576982
1147000000.0 -0.7340676931008019 -0.39557749860793817
1148000000.0 -0.7340760450247547 -0.39502583633177313
1149000000.0 -0.7339572245445348 -0.3946020594855063
1150000000.0 -0.7339911982641124 -0.3940799217556119
1151000000.0 -0.7339272346585088 -0.3936408476220997
1152000000.0 -0.7339027350585003 -0.3931873012980826
1153000000.0 -0.7340387283203266 -0.39277035322708526
1154000000.0 -0.7338968027367244 -0.3922052022053796
1155000000.0 -0.7339873724429515 -0.3917872381582415
1156000000.0 -0.7339182087352635 -0.39128090477697774
1157000000.0 -0.7338845447454362 -0.39096851224296003
1158000000.0 -0.7339403371264851 -0.39052222543212856
1159000000.0 -0.7337845153786247 -0.39012512452746595
1160000000.0 -0.7339118951845218 -0.3896583971062197
1161000000.0 -0.7337778720866893 -0.38931546576390647
1162000000.0 -0.7338529856196555 -0.38892751867860814
1163000000.0 -0.7339690259466529 -0.38859079602146346
1164000000.0 -0.7339062396949957 -0.3882143626519987
1165000000.0 -0.733927131553319 -0.3879200527061299
1166000000.0 -0.734081424014099 -0.3875116188066735
1167000000.0 -0.7341202929773644 -0.38725684228804474
1168000000.0 -0.7341674636456542 -0.3869887648484363
1169000000.0 -0.7342889055587339 -0.38663959477993054
1170000000.0 -0.7343270256588076 -0.38624732431999675
1171000000.0 -0.7344439311822671 -0.38597344765919794
1172000000.0 -0.7345332497260754 -0.38571745498837745
1173000000.0 -0.7346623391618732 -0.3854231982514668
1174000000.0 -0.734866707055335 -0.385117539422619
1175000000.0 -0.7350267287374687 -0.38480369594801817
1176000000.0 -0.7352803226142729 -0.3845089181514313
1177000000.0 -0.7353430986171993 -0.3841854876690853
1178000000.0 -0.7356253248626372 -0.3838982864855078
1179000000.0 -0.7359331955465885 -0.383583249530798
1180000000.0 -0.7361368743612005 -0.3832301569454673
1181000000.0 -0.7362534019729096 -0.382931704402709
1182000000.0 -0.7365908416634593 -0.3826479598168962
1183000000.0 -0.7367154286308681 -0.3823816739695881
1184000000.0 -0.7370465732462421 -0.38201927969789207
1185000000.0 -0.7372653062527337 -0.38167510814907535
1186000000.0 -0.7375757062389493 -0.38135224064550904
1187000000.0 -0.7379085676746749 -0.3810284255676336
1188000000.0 -0.7381654181123392 -0.3807257798570523
1189000000.0 -0.7383967875570326 -0.38025085897548544
1190000000.0 -0.7388093013021975 -0.3800413560215878
1191000000.0 -0.7390871647874935 -0.3796468272063511
1192000000.0 -0.7393336875266454 -0.37926229604671824
1193000000.0 -0.7397125618872854 -0.37899069393851564
1194000000.0 -0.740149763252259 -0.37872237448759305
1195000000.0 -0.7405218013064564 -0.3782798981965535
1196000000.0 -0.7407144705310426 -0.37792104905568635
1197000000.0 -0.7411496440503431 -0.3776825919282303
1198000000.0 -0.741558454437077 -0.3772494647080181
1199000000.0 -0.7418891991995711 -0.3769332836499913
1200000000.0 -0.7423746341422136 -0.3765507815043539
1201000000.0 -0.7427493816169921 -0.3761816153042451
1202000000.0 -0.7430398611655766 -0.375786740481499
1203000000.0 -0.7434374801854997 -0.37541694601657033
1204000000.0 -0.7438377311702803 -0.37513380741872165
1205000000.0 -0.744163079715079 -0.37466093026625935
1206000000.0 -0.7446447720532536 -0.3742842427977124
1207000000.0 -0.7451609920935615 -0.3739885916719164
1208000000.0 -0.745577046444001 -0.37355273235564806
1209000000.0 -0.7459684210469658 -0.37321639238214727
1210000000.0 -0.7462933304309475 -0.3727581341331472
1211000000.0 -0.7468383884596197 -0.37239385126589897
1212000000.0 -0.7472458850432749 -0.371848025104631
1213000000.0 -0.7475626597973247 -0.3715141170790354
1214000000.0 -0.7480826533496251 -0.3711732072217268
1215000000.0 -0.7483485644460663 -0.37053531733787787
1216000000.0 -0.7489442921674799 -0.37013901215456346
1217000000.0 -0.74924543115973 -0.36972793276933996
1218000000.0 -0.7497035411936928 -0.3692437368728929
1219000000.0 -0.7500277958224565 -0.36865670650348104
1220000000.0 -0.7503777709506199 -0.3681360336934907
1221000000.0 -0.7507230414025985 -0.3678832291950837
1222000000.0 -0.75120532097293 -0.3672842283394233
1223000000.0 -0.7515390213469066 -0.3667605608394149
1224000000.0 -0.7518860526852273 -0.36636049006139626
1225000000.0 -0.7521468921407323 -0.3658618554818361
1226000000.0 -0.752487171585052 -0.36532471372711806
1227000000.0 -0.7529021995383836 -0.36481648370196695
1228000000.0 -0.7532332098700895 -0.3643723691059128
1229000000.0 -0.7535073296615051 -0.3638830479743932
1230000000.0 -0.7537440728395252 -0.3633946101621239
1231000000.0 -0.7540432819002914 -0.3629392679752824
1232000000.0 -0.7541177627490092 -0.36254610548880084
1233000000.0 -0.7545023124917438 -0.3620671586255316
1234000000.0 -0.7547566932535169 -0.3616260242556102
1235000000.0 -0.7550708678373451 -0.36115197017218253
1236000000.0 -0.7552689248703014 -0.3608194217364413
1237000000.0 -0.7555850349405822 -0.36035633643045073
1238000000.0 -0.7558776826312623 -0.36000665288910066
1239000000.0 -0.7560473356603167 -0.35960696080239724
1240000000.0 -0.7562127740667706 -0.3592993742010777
1241000000.0 -0.7564973012031596 -0.3588818237848963
1242000000.0 -0.7566186703279242 -0.3585657898652113
1243000000.0 -0.7568812723400841 -0.358166878648151
1244000000.0 -0.7571371531506138 -0.357828901650173
1245000000.0 -0.757372643890101 -0.3576230993280711
1246000000.0 -0.7576395237464376 -0.35728710604670677
1247000000.0 -0.7578616317163162 -0.35701672371469517
1248000000.0 -0.7580980266206574 -0.3567909842196219
1249000000.0 -0.7582656611555685 -0.3564822232261461
1250000000.0 -0.7584688743375649 -0.3561607621773471
1251000000.0 -0.7588762135418579 -0.3559556298591834
1252000000.0 -0.7591171218595605 -0.35574606330997033
1253000000.0 -0.7592608261735817 -0.355482403638797
1254000000.0 -0.759589393210618 -0.35520255416247404
1255000000.0 -0.7599009923473274 -0.3550753588971794
1256000000.0 -0.7602071047772085 -0.35477479597058104
1257000000.0 -0.7604955881589748 -0.3544872328719135
1258000000.0 -0.760812158255543 -0.3543466037375061
1259000000.0 -0.7611007082510347 -0.35406865724141434
1260000000.0 -0.7613548135775848 -0.3538889473626021
1261000000.0 -0.7616887252561416 -0.3537328425113285
1262000000.0 -0.7620138176079222 -0.35347560975333553
1263000000.0 -0.7623022434236376 -0.3532511614241978
1264000000.0 -0.7626937178245368 -0.3531189699177883
1265000000.0 -0.7629706567621463 -0.35293087354107777
1266000000.0 -0.763294556061795 -0.35272653567344997
1267000000.0 -0.763740247730162 -0.35244955393271066
1268000000.0 -0.7639521574009446 -0.3522167752585458
1269000000.0 -0.7643348105327005 -0.3520635711943623
1270000000.0 -0.764811347527384 -0.3518278043428225
1271000000.0 -0.7650705592397046 -0.35156266484090165
1272000000.0 -0.7654475517304882 -0.35139351254135853
1273000000.0 -0.7657707088581573 -0.35123327443196334
1274000000.0 -0.7662199206414118 -0.35083887789443496
1275000000.0 -0.7665550445094348 -0.3506805583874407
1276000000.0 -0.7669347626611097 -0.35040982638702733
1277000000.0 -0.767325760716155 -0.35017216771915316
1278000000.0 -0.7676679349558052 -0.34989496142101767
1279000000.0 -0.7680532487576734 -0.3496927331940714
1280000000.0 -0.7683206872269271 -0.34945555820311136
1281000000.0 -0.7687543699039533 -0.3492031342773246
1282000000.0 -0.7690837647748621 -0.3489419522268651
1283000000.0 -0.7695358845931182 -0.34853527843015075
1284000000.0 -0.769998526149964 -0.3483262566805211
1285000000.0 -0.7703362613563819 -0.34809307305763376
1286000000.0 -0.7706610609489343 -0.347726798799217
1287000000.0 -0.771028410230999 -0.347453940070001
1288000000.0 -0.7713450331179477 -0.34704337233315713
1289000000.0 -0.7717345827826415 -0.3467650432066071
1290000000.0 -0.7721133395111642 -0.3465368525902003
1291000000.0 -0.7723794554477572 -0.3460906359892904
1292000000.0 -0.7726920646182235 -0.3457070572595023
1293000000.0 -0.7730682314356182 -0.34552311220564597
1294000000.0 -0.7733886016462912 -0.34510657172185477
1295000000.0 -0.773655075254371 -0.3447784151611831
1296000000.0 -0.7740088811591387 -0.3444535834883591
1297000000.0 -0.7742645984408725 -0.3439869318468429
1298000000.0 -0.7745095393405421 -0.3436675300714143
1299000000.0 -0.774781239763412 -0.34341753685448295
1300000000.0 -0.7751364747078434 -0.34311458515015936
1301000000.0 -0.775204395000206 -0.3427824708081175
1302000000.0 -0.775567773051618 -0.34239917417998356
1303000000.0 -0.775782691124981 -0.3420982152695426
1304000000.0 -0.7759895372788637 -0.34171683697093413
1305000000.0 -0.7761453343908954 -0.3414884818524534
1306000000.0 -0.7764621994517508 -0.3411474077039458
1307000000.0 -0.7765768390124923 -0.3408608582906212
1308000000.0 -0.7766943029904559 -0.34055226577292824
1309000000.0 -0.7770160839347893 -0.34020174717465196
1310000000.0 -0.7772060380661855 -0.33983057860926774
1311000000.0 -0.7773107394593469 -0.33951610879499516
1312000000.0 -0.7775112441843545 -0.33927139511399146
1313000000.0 -0.7775444096293473 -0.3391087298579408
1314000000.0 -0.7777726316704198 -0.3386374556459581
1315000000.0 -0.7779638837584262 -0.33834545195708615
1316000000.0 -0.7780127868076977 -0.3379327532938919
1317000000.0 -0.7783689883676355 -0.33776560682791373
1318000000.0 -0.7784090670748189 -0.33741137859914366
1319000000.0 -0.7785913672268496 -0.3373032463437236
1320000000.0 -0.7787571551308713 -0.33703412283976714
1321000000.0 -0.7789471387206061 -0.3367590616654205
1322000000.0 -0.7788500975037489 -0.33657158763630624
1323000000.0 -0.7790386296229498 -0.3363110653655627
1324000000.0 -0.7791653865642125 -0.336049973628387
1325000000.0 -0.7793774856882637 -0.33581311369582945
1326000000.0 -0.7793361587371588 -0.3356103760304983
1327000000.0 -0.7795413386629332 -0.3354213564679141
1328000000.0 -0.7797055552110076 -0.3352895326771082
1329000000.0 -0.7799044813045415 -0.3350104927903629
1330000000.0 -0.7798129771699311 -0.33494250690923727
1331000000.0 -0.7800423677641999 -0.334729219684371
1332000000.0 -0.7802717160961489 -0.3345869993258187
1333000000.0 -0.7803783338189436 -0.3342303229759556
1334000000.0 -0.7804224629152626 -0.33422182035354486
1335000000.0 -0.7807572179476743 -0.3339793555795026
1336000000.0 -0.7809238748121552 -0.33368432914967616
1337000000.0 -0.7809962631892586 -0.33367262452042407
1338000000.0 -0.7811317251826428 -0.3335054292551541
1339000000.0 -0.7811692511657495 -0.33317621500878714
1340000000.0 -0.7815038657794857 -0.3331198870469742
1341000000.0 -0.7815979117845196 -0.3329566074400014
1342000000.0 -0.7818682656419091 -0.3327810774636326
1343000000.0 -0.7820475099221237 -0.33251960132713204
1344000000.0 -0.782123665490142 -0.33231843397796934
1345000000.0 -0.7823200025837881 -0.332075397141608
1346000000.0 -0.7824767015052625 -0.3319624265446266
1347000000.0 -0.7826694056950585 -0.3316733506434932
1348000000.0 -0.7828407378651443 -0.3314892297064361
1349000000.0 -0.7830483208322887 -0.3312533489540093
1350000000.0 -0.7831325575581817 -0.331045879091575
1351000000.0 -0.7833977177652974 -0.3308828842371927
1352000000.0 -0.7834422983213853 -0.33067014655941107
1353000000.0 -0.7837103630793139 -0.3303924884724209
1354000000.0 -0.7839085743059929 -0.3301893652785871
1355000000.0 -0.7841598507678186 -0.32980176650976784
1356000000.0 -0.784054369173898 -0.3296915198566602
1357000000.0 -0.784376065839163 -0.3293970303281228
1358000000.0 -0.7845322153883191 -0.3290132987781672
1359000000.0 -0.7845740912870299 -0.3287980379392729
1360000000.0 -0.7847705139534631 -0.32850103212056647
1361000000.0 -0.7850081125810203 -0.3282509131570503
1362000000.0 -0.7851536800180823 -0.328068045544247
1363000000.0 -0.7851931972803675 -0.3276419353292784
1364000000.0 -0.7853025728940054 -0.32739588677980275
1365000000.0 -0.7854665975647963 -0.3270182323624557
1366000000.0 -0.7857045233861525 -0.32679180227163057
1367000000.0 -0.78565968103479 -0.3263944108995706
1368000000.0 -0.7856982518507827 -0.32609348373047664
1369000000.0 -0.7857734868661628 -0.3257790494439792
1370000000.0 -0.7859768631800961 -0.32545371875276696
1371000000.0 -0.7859487637005548 -0.3251198431168601
1372000000.0 -0.7859944173185568 -0.3248205779582236
1373000000.0 -0.7861801351160185 -0.32438216726531516
1374000000.0 -0.7862059087196697 -0.32417173780354663
1375000000.0 -0.7861796487072976 -0.32374990151972893
1376000000.0 -0.7862376717874286 -0.32347898919588913
1377000000.0 -0.7862868237980024 -0.3230840276029136
1378000000.0 -0.7863032729119032 -0.32270990229091256
1379000000.0 -0.7862871901042994 -0.3224131245644888
1380000000.0 -0.7863167077409731 -0.32216215339814325
1381000000.0 -0.7863833678916069 -0.32172488350276846
1382000000.0 -0.7863023260546307 -0.32139703542970816
1383000000.0 -0.7863103579565366 -0.321126340610849
1384000000.0 -0.7862733751136595 -0.3207126274727958
1385000000.0 -0.7862881389275537 -0.32042994497355504
1386000000.0 -0.7862053056743282 -0.3200974307463579
1387000000.0 -0.7862012402297535 -0.3198010965689138
1388000000.0 -0.7862411702976758 -0.3194614704033251
1389000000.0 -0.7862531720285755 -0.3190881451990282
1390000000.0 -0.7861077800718476 -0.318804437322517
1391000000.0 -0.7859876789917424 -0.3185598870009929
1392000000.0 -0.7860044681601644 -0.3183113626808396
1393000000.0 -0.7859706483472482 -0.31790304968437516
1394000000.0 -0.7859388949375132 -0.3176933724356411
1395000000.0 -0.7858104977856796 -0.31743527578403535
1396000000.0 -0.7858037481088305 -0.31718205267010063
1397000000.0 -0.7857079853982748 -0.3169208427245259
1398000000.0 -0.7856095350531379 -0.3165839430801101
1399000000.0 -0.7856325045504613 -0.316326339353676
1400000000.0 -0.7854947514162118 -0.3159841980926567
1401000000.0 -0.7853434877847955 -0.3157707025452345
1402000000.0 -0.7852421139121025 -0.3155019642752477
1403000000.0 -0.7850870656748894 -0.3152990566968797
1404000000.0 -0.7851024989780615 -0.31504977289332875
1405000000.0 -0.7849037192714354 -0.3148028550583808
1406000000.0 -0.7849090351381489 -0.31447969234950157
1407000000.0 -0.7847490879317927 -0.31445965447304663
1408000000.0 -0.7846158373092842 -0.3140286879147675
1409000000.0 -0.7845585536747938 -0.31383502503032956
1410000000.0 -0.7844389039742617 -0.3137517158215217
1411000000.0 -0.7843326589019802 -0.31346480404085403
1412000000.0 -0.7842259924519898 -0.31328420937332835
1413000000.0 -0.7841690133117818 -0.31299180802473353
1414000000.0 -0.784080430012313 -0.3128250970341576
1415000000.0 -0.7839367710494407 -0.3125883374084596
1416000000.0 -0.7839398811793075 -0.31240857565654073
1417000000.0 -0.7837562603049306 -0.31218905303252553
1418000000.0 -0.7836621474769061 -0.31203691411809964
1419000000.0 -0.7834594402203475 -0.3119048264825773
1420000000.0 -0.7834612442038651 -0.3115253555720551
1421000000.0 -0.7833104087578979 -0.3114488024143889
1422000000.0 -0.7833248706608865 -0.31122051810424833
1423000000.0 -0.783250007465199 -0.3111149915835979
1424000000.0 -0.7831862490258457 -0.3108771288992909
1425000000.0 -0.7830694829762086 -0.31066931104269796
1426000000.0 -0.78305760197399 -0.3106510572757363
1427000000.0 -0.7830244194548334 -0.3104612603323048
1428000000.0 -0.7828704400616343 -0.3102176464891817
1429000000.0 -0.7828613374227005 -0.31003751466967167
1430000000.0 -0.7828360523579692 -0.309889048889978
1431000000.0 -0.7828226493137913 -0.3098396830699254
1432000000.0 -0.7828462122328177 -0.30970454115781576
1433000000.0 -0.7827498562722799 -0.3094670935550464
1434000000.0 -0.7826991599249556 -0.3093192207448851
1435000000.0 -0.782788786393846 -0.3092058362405505
1436000000.0 -0.7826279964075114 -0.3090435882813758
1437000000.0 -0.7825756999157885 -0.30899511884831055
1438000000.0 -0.7825980368016228 -0.308808621505911
1439000000.0 -0.7826046096429197 -0.30862306381829274
1440000000.0 -0.782507559718059 -0.30848917719802443
1441000000.0 -0.7825962295689415 -0.3083982181877607
1442000000.0 -0.7825229256269998 -0.30837040419388845
1443000000.0 -0.7825960458905142 -0.3081322049307382
1444000000.0 -0.7825208406691517 -0.3080023024212764
1445000000.0 -0.7825714241792902 -0.3078532486780443
1446000000.0 -0.7826551168256773 -0.3077156856595414
1447000000.0 -0.7825352431153486 -0.30762285719313115
1448000000.0 -0.7825439687142696 -0.30732566644590936
1449000000.0 -0.782689999030535 -0.30739851589662237
1450000000.0 -0.7826176819988484 -0.30726054385951973
1451000000.0 -0.7827637834188532 -0.30706289101154216
1452000000.0 -0.7828037731157381 -0.30705034351971555
1453000000.0 -0.7826263663570168 -0.3068250014619819
1454000000.0 -0.7827439607972042 -0.3067093735347021
1455000000.0 -0.7827667959215273 -0.3065625336678775
1456000000.0 -0.7828447683539902 -0.30638215710796796
1457000000.0 -0.7828506718953484 -0.3063030112005907
1458000000.0 -0.7828953106803742 -0.3061765711796302
1459000000.0 -0.7829633088708166 -0.3060494810515101
1460000000.0 -0.7830504033748964 -0.30591695962956067
1461000000.0 -0.783021125536353 -0.30571800772890606
1462000000.0 -0.7831127100741267 -0.3056509763037957
1463000000.0 -0.783202846061612 -0.30544155668198025
1464000000.0 -0.7832469426760019 -0.3053472852058695
1465000000.0 -0.7832996088746008 -0.30522096765628165
1466000000.0 -0.7833719488905945 -0.3050510423308103
1467000000.0 -0.783482400965355 -0.3048638102573461
1468000000.0 -0.7836146116819626 -0.3048254354027739
1469000000.0 -0.7836652509995767 -0.30450307594369963
1470000000.0 -0.7836949934057144 -0.3044391466186583
1471000000.0 -0.7838674597226877 -0.3042083064406045
1472000000.0 -0.7839989367515345 -0.3040854803741637
1473000000.0 -0.7839738053476352 -0.3038878275044766
1474000000.0 -0.7841359996352949 -0.3038454669992949
1475000000.0 -0.784132187751787 -0.30378390967791125
1476000000.0 -0.7843023610774281 -0.3034958110673703
1477000000.0 -0.7843606630197837 -0.30333673551819046
1478000000.0 -0.7844546148010666 -0.303208278147618
1479000000.0 -0.784571376815174 -0.3029238784676177
1480000000.0 -0.7846422294028894 -0.3027541409923807
1481000000.0 -0.784702108812544 -0.3026143875099219
1482000000.0 -0.7848559121187377 -0.30253123973331764
1483000000.0 -0.7849947328840452 -0.3022262192999723
1484000000.0 -0.7850802171887586 -0.3021883963666271
1485000000.0 -0.7852079504837502 -0.30186325774061745
1486000000.0 -0.7853257160490087 -0.301759619348016
1487000000.0 -0.7854185851837449 -0.3015691455483455
1488000000.0 -0.7854988894224285 -0.3013678488316193
1489000000.0 -0.7856523342841314 -0.30117494684664325
1490000000.0 -0.7856819322416356 -0.300889828861989
1491000000.0 -0.7858719595848148 -0.30063618846941736
1492000000.0 -0.7859972845875288 -0.3005288335187434
1493000000.0 -0.7860369554551606 -0.30033008857160276
1494000000.0 -0.7861271660255511 -0.3001781845709694
1495000000.0 -0.7862963907828958 -0.3000168324829311
1496000000.0 -0.7865166729343058 -0.2997837514887583
1497000000.0 -0.7865725012843169 -0.2995250582830138
1498000000.0 -0.7865795098696753 -0.299316088176225
1499000000.0 -0.7866669105292274 -0.29916291381132165
1500000000.0 -0.7869137445086951 -0.29900710453625207
1501000000.0 -0.7869815568097684 -0.29881781410929725
1502000000.0 -0.7870380390615475 -0.2986187425202991
1503000000.0 -0.787247604311597 -0.2983662735488901
1504000000.0 -0.7872867019761943 -0.29821024036799315
1505000000.0 -0.7874340309880944 -0.2980237901622047
1506000000.0 -0.7874501659411556 -0.2979320134008317
1507000000.0 -0.7875968626671128 -0.2977344234582998
1508000000.0 -0.787665901671573 -0.2973618669547295
1509000000.0 -0.7877434327114176 -0.29724864013179736
1510000000.0 -0.7877773710481064 -0.2969939857419957
1511000000.0 -0.7878380579592299 -0.2968216240484019
1512000000.0 -0.7879844780635219 -0.2966756549091652
1513000000.0 -0.7879477308287818 -0.29647054118786426
1514000000.0 -0.7880332960661351 -0.2961827316688382
1515000000.0 -0.7881747828059091 -0.2961438354976366
1516000000.0 -0.7882312959670716 -0.2958800803508857
1517000000.0 -0.788262734626806 -0.29567970192428195
1518000000.0 -0.7884719357198754 -0.29554847100206305
1519000000.0 -0.788403580220226 -0.2952994086089282
1520000000.0 -0.7885239926656291 -0.29517009378786674
1521000000.0 -0.7888004222465891 -0.2950291569547519
1522000000.0 -0.7886800996167951 -0.2947623389411303
1523000000.0 -0.7887127412585706 -0.2947243364683591
1524000000.0 -0.7887168992255877 -0.2943863896149544
1525000000.0 -0.7888330087520175 -0.29443575052136406
1526000000.0 -0.789010458902488 -0.2941958297946373
1527000000.0 -0.7891970465697574 -0.2941442099898017
1528000000.0 -0.78923964112163 -0.2939770005530887
1529000000.0 -0.7893591685606736 -0.29390543402486907
1530000000.0 -0.789426746247009 -0.2936403361058935
1531000000.0 -0.7894928784393932 -0.2935642054783735
1532000000.0 -0.7895845090177341 -0.2933493464941691
1533000000.0 -0.789482150649772 -0.2932815557930738
1534000000.0 -0.7895552476144516 -0.2931317512936312
1535000000.0 -0.7899465205997906 -0.2929977161399687
1536000000.0 -0.7898625904765719 -0.2928635107645755
1537000000.0 -0.7899460973916022 -0.2926699040489357
1538000000.0 -0.7900191838758196 -0.2926124952308103
1539000000.0 -0.7901933078884349 -0.2924955598687052
1540000000.0 -0.790269697592993 -0.29230117857825744
1541000000.0 -0.7904268355387691 -0.2922547153322613
1542000000.0 -0.7905432698496518 -0.29214095341375196
1543000000.0 -0.7907620761368238 -0.29208696559900715
1544000000.0 -0.7907452832457893 -0.2918642944654253
1545000000.0 -0.7907937431810561 -0.291827670711713
1546000000.0 -0.7910261142970638 -0.29170715158673133
1547000000.0 -0.7911032870143295 -0.29156962710231754
1548000000.0 -0.791198818644773 -0.2915572809223008
1549000000.0 -0.7913363134125976 -0.29147565156675
1550000000.0 -0.7913772141670298 -0.2913049298677831
1551000000.0 -0.7917084063306585 -0.291090207351601
1552000000.0 -0.7917031924624305 -0.29098906617197284
1553000000.0 -0.7917420919436307 -0.2909467567716271
1554000000.0 -0.7919979577172662 -0.29097968764631366
1555000000.0 -0.7921337321153061 -0.29072204025781606
1556000000.0 -0.7922995929610179 -0.2907762444658945
1557000000.0 -0.7924380006858732 -0.29047127300981124
1558000000.0 -0.7926751032178959 -0.2905001030256056
1559000000.0 -0.7926976612481105 -0.29047817645224316
1560000000.0 -0.792886248696395 -0.2903722614077334
1561000000.0 -0.7929965944455648 -0.29009699049401605
1562000000.0 -0.7931178183478002 -0.29021317528343166
1563000000.0 -0.7931907093106014 -0.2900129781367169
1564000000.0 -0.7935032509754792 -0.28998312853066016
1565000000.0 -0.7936218183929964 -0.28988832741789045
1566000000.0 -0.7937621799256195 -0.28980381259550825
1567000000.0 -0.7938748848113558 -0.28957459070250424
1568000000.0 -0.7939975385059893 -0.2896849961145768
1569000000.0 -0.7943829116616458 -0.2896625524500846
1570000000.0 -0.7943989969277039 -0.2894404632487508
1571000000.0 -0.7944583089505829 -0.28942577615873266
1572000000.0 -0.794826389571245 -0.2893719671271167
1573000000.0 -0.7949284433550637 -0.28920207208780074
1574000000.0 -0.7952148356990231 -0.2892519504816283
1575000000.0 -0.7951339015154304 -0.2891198886902343
1576000000.0 -0.7953702938058421 -0.28895643690553297
1577000000.0 -0.7955605850287493 -0.2888425491798891
1578000000.0 -0.7955893990435531 -0.28880935223904863
1579000000.0 -0.795779922663623 -0.28865341986427284
1580000000.0 -0.795941734148682 -0.28862275110767943
1581000000.0 -0.7960092979617311 -0.2884653076449909
1582000000.0 -0.7961801489727174 -0.2884112233684527
1583000000.0 -0.7962033655205061 -0.28837214463013855
1584000000.0 -0.7966894152554304 -0.28824051854374466
1585000000.0 -0.7967725445607008 -0.28812906312398745
1586000000.0 -0.796866916687713 -0.28801455025296707
1587000000.0 -0.7969574872061219 -0.28794841631190154
1588000000.0 -0.7971680963281039 -0.28782098825356406
1589000000.0 -0.7972485676814508 -0.2877525454686544
1590000000.0 -0.7975425754298726 -0.28782972945470336
1591000000.0 -0.7975540264563625 -0.2875593678724883
1592000000.0 -0.7977437226229966 -0.28740191710096336
1593000000.0 -0.7979611418010238 -0.2872105828802713
1594000000.0 -0.798095499527073 -0.2871662413432736
1595000000.0 -0.7982164959039397 -0.2871013354966644
1596000000.0 -0.7985471061511 -0.2869215803683159
1597000000.0 -0.7986560452840081 -0.28683038136605565
1598000000.0 -0.798820624549289 -0.2867714259126515
1599000000.0 -0.7988735544574459 -0.28652701642741024
1600000000.0 -0.7991253105449456 -0.28654795684910817
1601000000.0 -0.7992634224906369 -0.28646766719328476
1602000000.0 -0.7994286829389994 -0.28639071175617126
1603000000.0 -0.7995868480867645 -0.2862334761870032
1604000000.0 -0.7998204398019184 -0.2862233657531785
1605000000.0 -0.7998560667805146 -0.2860358020428877
1606000000.0 -0.8001946184207869 -0.28593466059850897
1607000000.0 -0.8002899014301343 -0.28589751493272364
1608000000.0 -0.8004609621477348 -0.28571237230456686
1609000000.0 -0.8006954836756457 -0.2856696678504186
1610000000.0 -0.8007753172764707 -0.2855788107099106
1611000000.0 -0.8010063011432113 -0.28545587268794437
1612000000.0 -0.8011852782717871 -0.28534979788227166
1613000000.0 -0.8013147590621484 -0.285206355084975
1614000000.0 -0.801568654414406 -0.28516637489198937
1615000000.0 -0.8016648418501362 -0.2850658476343994
1616000000.0 -0.8018043547385433 -0.2849559867547927
1617000000.0 -0.8019910517650913 -0.28487495624726605
1618000000.0 -0.8020571805887577 -0.28476820382934837
1619000000.0 -0.8022357139407633 -0.28460737759717347
1620000000.0 -0.8023983884658313 -0.2845602738974864
1621000000.0 -0.8024887650107181 -0.28440527194405746
1622000000.0 -0.8026048870026177 -0.2843002692743322
1623000000.0 -0.8027548721777409 -0.2841190488821533
1624000000.0 -0.8027820676978479 -0.28396171975807527
1625000000.0 -0.8028964632994069 -0.28390828214274394
1626000000.0 -0.8030215245536572 -0.28367669225957665
1627000000.0 -0.803309164014099 -0.2834362188107309
1628000000.0 -0.8033072731918871 -0.28340086738325276
1629000000.0 -0.8033199303793106 -0.283204242343575
1630000000.0 -0.8034903425399317 -0.2829223588898747
1631000000.0 -0.8035659066224061 -0.28287609246874645
1632000000.0 -0.8035250989401699 -0.2826575773234647
1633000000.0 -0.8037518412588663 -0.28253950013398726
1634000000.0 -0.8037664779947128 -0.2824389663818455
1635000000.0 -0.8037526998503106 -0.2822857501996935
1636000000.0 -0.8039588844449389 -0.2821300535256689
1637000000.0 -0.8040615925140332 -0.2818376952793841
1638000000.0 -0.80411954449449 -0.28178846652779815
1639000000.0 -0.8040608905298402 -0.28166147921796547
1640000000.0 -0.8042297198723696 -0.28144360894764625
1641000000.0 -0.8042132449652927 -0.28123562622588727
1642000000.0 -0.8043097157372661 -0.2811292330268319
1643000000.0 -0.8041984658014522 -0.2810561379677031
1644000000.0 -0.804334871953517 -0.28084521995637185
1645000000.0 -0.8044203025970724 -0.280743610096894
1646000000.0 -0.8043233407050859 -0.2805950042812873
1647000000.0 -0.8043310523989 -0.28046947548070394
1648000000.0 -0.8043443749544673 -0.2802975483400489
1649000000.0 -0.8043769403329984 -0.28011722895162394
1650000000.0 -0.8043113342832335 -0.2799463690617777
1651000000.0 -0.804397219808567 -0.2798558397388165
1652000000.0 -0.8043231233381605 -0.27973224195474305
1653000000.0 -0.8044187830580264 -0.2795044607235743
1654000000.0 -0.804221441295085 -0.2794277749592267
1655000000.0 -0.8042017302772957 -0.27931655917797077
1656000000.0 -0.8044910156669246 -0.2791376454160146
1657000000.0 -0.8042732404566206 -0.2789986568950717
1658000000.0 -0.8042629844098118 -0.2788088041464959
1659000000.0 -0.8041527877266127 -0.27871523197483106
1660000000.0 -0.8041210763166002 -0.2786480256560682
1661000000.0 -0.804146974898398 -0.27857252185133313
1662000000.0 -0.8041250126470164 -0.27830906694578983
1663000000.0 -0.8040077530644365 -0.2782460130959743
1664000000.0 -0.8040142291127657 -0.2781575285653865
1665000000.0 -0.8040291917231362 -0.2780631541549825
1666000000.0 -0.8039877557750683 -0.27794290794621873
1667000000.0 -0.8039730758292785 -0.27781218302163774
1668000000.0 -0.8038174547456215 -0.27766895902616934
1669000000.0 -0.8037101655563519 -0.27771987429538075
1670000000.0 -0.8038210101364512 -0.2776061188784798
1671000000.0 -0.8037273296862802 -0.2774177089509585
1672000000.0 -0.8035563838925738 -0.2774448605231326
1673000000.0 -0.8035850229980189 -0.2772022998031021
1674000000.0 -0.8033771170890032 -0.2771486249138115
1675000000.0 -0.8034593862187053 -0.2771495455364164
1676000000.0 -0.8033219668195574 -0.2770542303772715
1677000000.0 -0.8032770780583431 -0.2769881265201284
1678000000.0 -0.8031323524073578 -0.2769064464447677
1679000000.0 -0.8031607527208533 -0.2768279708687034
1680000000.0 -0.8030207065189829 -0.276815421080213
1681000000.0 -0.8030416419835278 -0.2766044207373188
1682000000.0 -0.8029063505540074 -0.27659498835436563
1683000000.0 -0.8029439254072369 -0.2765503204304703
1684000000.0 -0.802845685347991 -0.27648494779845856
1685000000.0 -0.8029043766816086 -0.2764243720839936
1686000000.0 -0.8027179114877072 -0.27636939012926637
1687000000.0 -0.8024741282239966 -0.27631631992234684
1688000000.0 -0.8024125823857733 -0.27626313988213447
1689000000.0 -0.8023664292691641 -0.2762142776886436
1690000000.0 -0.802356120886546 -0.2761458688808217
1691000000.0 -0.8022254414321887 -0.27615467058069654
1692000000.0 -0.80226503156943 -0.27617628625866103
1693000000.0 -0.8022017052575361 -0.2760274722830386
1694000000.0 -0.8020788666435371 -0.27600233321029366
1695000000.0 -0.8018601345662634 -0.2758489631051148
1696000000.0 -0.8018998974643633 -0.2760546292463706
1697000000.0 -0.8018948806047366 -0.276052870880122
1698000000.0 -0.8016708115129734 -0.27601753660637857
1699000000.0 -0.8016793233006962 -0.2758202956571219
1700000000.0 -0.8015797685990868 -0.2758807225254746
1701000000.0 -0.8015560863706287 -0.27570578610400936
1702000000.0 -0.8014493620247242 -0.2757475124769295
1703000000.0 -0.8012715015256991 -0.2756871152627683
1704000000.0 -0.8011528518965738 -0.2755504036484768
1705000000.0 -0.8011901515737033 -0.27571096929809136
1706000000.0 -0.8011004185606878 -0.27548840236164984
1707000000.0 -0.8010487976330537 -0.2755579085516474
1708000000.0 -0.8009063573076585 -0.275542301194734
1709000000.0 -0.8008214078048217 -0.2754209788766277
1710000000.0 -0.8007999052746538 -0.275360021471503
1711000000.0 -0.8006881915317096 -0.2752732590699498
1712000000.0 -0.8006037705120568 -0.2752068616368266
1713000000.0 -0.8005282948390455 -0.27517921405277695
1714000000.0 -0.8003721156421315 -0.2750878848687233
1715000000.0 -0.8003481571893178 -0.2750757925035817
1716000000.0 -0.8002243809479244 -0.275071324469888
1717000000.0 -0.8001105578831861 -0.2749102542768208
1718000000.0 -0.8000939732065026 -0.27488411892515363
1719000000.0 -0.8000625216652015 -0.2748205147110079
1720000000.0 -0.799910755074674 -0.2747538985886289
1721000000.0 -0.7997982463540422 -0.2747463883473681
1722000000.0 -0.7997702769482846 -0.27465081067225744
1723000000.0 -0.7997435284632451 -0.274473468564151
1724000000.0 -0.7996080000046151 -0.27452838756293413
1725000000.0 -0.7995734301502396 -0.2742847835142759
1726000000.0 -0.7995856226481107 -0.2743035030718368
1727000000.0 -0.7994314497347828 -0.2742188935677692
1728000000.0 -0.7994173305619197 -0.27406900197597406
1729000000.0 -0.7993626247685411 -0.2740680210906154
1730000000.0 -0.7990972737788661 -0.27390966524720656
1731000000.0 -0.7990997781798268 -0.27378185532426924
1732000000.0 -0.7990556922704198 -0.2736921874372732
1733000000.0 -0.7990717982337299 -0.27365614584778575
1734000000.0 -0.7988891279479046 -0.2735526162230435
1735000000.0 -0.7987607150203999 -0.27339737841656686
1736000000.0 -0.7987230413869612 -0.2732951570223416
1737000000.0 -0.7986016785728328 -0.27328768309872625
1738000000.0 -0.7986726108731501 -0.2730843781806788
1739000000.0 -0.7986132734322892 -0.2730658641085949
1740000000.0 -0.7983727593689313 -0.2729267125030072
1741000000.0 -0.7983542496575532 -0.2728802659419029
1742000000.0 -0.7982299735747843 -0.27270088813238225
1743000000.0 -0.798149958078556 -0.2726062734980607
1744000000.0 -0.7980995583901347 -0.27245050832327783
1745000000.0 -0.7981085104568818 -0.2722502100880371
1746000000.0 -0.7977934648441275 -0.27222926476389214
1747000000.0 -0.7977935161715888 -0.27201642095299716
1748000000.0 -0.7976596194225212 -0.27199886447602756
1749000000.0 -0.7976378584412429 -0.2717768364752532
1750000000.0 -0.7975458056294058 -0.27163866719873003
1751000000.0 -0.7976052361304697 -0.2713992086841127
1752000000.0 -0.7973683331750647 -0.27135125409354593
1753000000.0 -0.7973456566863879 -0.2712724054726545
1754000000.0 -0.797243723050092 -0.27112011263541924
1755000000.0 -0.797210237579446 -0.27087759148726787
1756000000.0 -0.7969395188287502 -0.27055878010560575
1757000000.0 -0.7969066167771786 -0.27050652001569686
1758000000.0 -0.7966790931603128 -0.27041809222977614
1759000000.0 -0.796724796693219 -0.2702506908962965
1760000000.0 -0.7966645290942808 -0.27011246763188274
1761000000.0 -0.7964145000857369 -0.26994066050981247
1762000000.0 -0.796298702474682 -0.2698533633396558
1763000000.0 -0.7964666524695444 -0.26963642223496737
1764000000.0 -0.7961732066064026 -0.26946111023272745
1765000000.0 -0.7960565838345878 -0.2691839313599794
1766000000.0 -0.7960734593502131 -0.26909980963443697
1767000000.0 -0.7957474224120694 -0.26898651849866545
1768000000.0 -0.7957124885869623 -0.26863325895470636
1769000000.0 -0.7956219517456053 -0.2685470995991623
1770000000.0 -0.795531844922109 -0.26824377697635143
1771000000.0 -0.7954438477482068 -0.26822446467632216
1772000000.0 -0.7953360353893718 -0.26810846484082546
1773000000.0 -0.7953309299955665 -0.2678266801009302
1774000000.0 -0.7952631841497136 -0.2675606132793732
1775000000.0 -0.794794862199994 -0.26742425172691653
1776000000.0 -0.794985182373971 -0.2674447936344499
1777000000.0 -0.7949600204634379 -0.26708586813076823
1778000000.0 -0.7948656396777123 -0.26691655812981474
1779000000.0 -0.7947460754009452 -0.2667768868819767
1780000000.0 -0.7946087788761156 -0.26656921395569055
1781000000.0 -0.7945966426598371 -0.26637098177183094
1782000000.0 -0.7943615677844174 -0.26615933749626325
1783000000.0 -0.7941650426271636 -0.26615853508861764
1784000000.0 -0.7940331907652659 -0.2657042912991467
1785000000.0 -0.7939092068204 -0.26546572004716573
1786000000.0 -0.7939193768796114 -0.26539515959455084
1787000000.0 -0.7937613844067338 -0.26523393591044725
1788000000.0 -0.7936463488489083 -0.2649797374186195
1789000000.0 -0.7936621138355582 -0.26474967640306546
1790000000.0 -0.7933906060240352 -0.2648129972457568
1791000000.0 -0.7932889716930219 -0.2644010000714522
1792000000.0 -0.7932232630872386 -0.26430359008963383
1793000000.0 -0.7931079718602948 -0.2640442099545147
1794000000.0 -0.792960346692479 -0.26389046328047044
1795000000.0 -0.7927823169032933 -0.2637828201494423
1796000000.0 -0.7926251797269194 -0.26354035575299617
1797000000.0 -0.7925270610435022 -0.2633490435612486
1798000000.0 -0.7924297512597206 -0.2630474705216137
1799000000.0 -0.7924686580527127 -0.2629182342621635
1800000000.0 -0.7922174679227268 -0.26265054027989454
1801000000.0 -0.7920735691019836 -0.2626237000582206
1802000000.0 -0.7919639638019109 -0.26234146557050425
1803000000.0 -0.7918909060566021 -0.2620332720195198
1804000000.0 -0.7917102986478428 -0.26190985741525896
1805000000.0 -0.7918794904581076 -0.26164449380986005
1806000000.0 -0.7914972703200831 -0.26148677890537914
1807000000.0 -0.7915052040205494 -0.2611774014000577
1808000000.0 -0.7912383998292116 -0.26122334596132984
1809000000.0 -0.7912566515572548 -0.26095547101747985
1810000000.0 -0.7910217745083401 -0.2607777021477304
1811000000.0 -0.7909855293317741 -0.2606320797591181
1812000000.0 -0.790784390491456 -0.26023173358872786
1813000000.0 -0.7906163637221695 -0.2602269230373192
1814000000.0 -0.7905691199439535 -0.259862680337636
1815000000.0 -0.7903965920646192 -0.2597740540745749
1816000000.0 -0.7903088778229432 -0.25949006222907356
1817000000.0 -0.7901852328398433 -0.25932212742078997
1818000000.0 -0.790153992307504 -0.25918886237048033
1819000000.0 -0.7900759164147445 -0.2589994265593996
1820000000.0 -0.7899849387772406 -0.2587771441714376
1821000000.0 -0.7898791701368966 -0.2585211843674135
1822000000.0 -0.7897257417533959 -0.25835007067463883
1823000000.0 -0.7896689496173305 -0.2581803309138627
1824000000.0 -0.7896323821436878 -0.25790525458229785
1825000000.0 -0.7895466893331863 -0.2577507562594123
1826000000.0 -0.789354201942014 -0.2576183870581549
1827000000.0 -0.7893708408970123 -0.2574934368454073
1828000000.0 -0.7894656969878503 -0.25730909208810426
1829000000.0 -0.7893198665698817 -0.25721174430217014
1830000000.0 -0.7891012502324303 -0.2569090765695992
1831000000.0 -0.7891492000673286 -0.25679746624283367
1832000000.0 -0.7890218938452981 -0.2566435912267083
1833000000.0 -0.7889722594893306 -0.2565072499126049
1834000000.0 -0.7888363048229579 -0.25624094779433093
1835000000.0 -0.7888606637850045 -0.25615087119709334
1836000000.0 -0.7887836390982773 -0.2560175707316816
1837000000.0 -0.7887085014499413 -0.25580033762562726
1838000000.0 -0.7886436927698476 -0.2557330889894022
1839000000.0 -0.7886637015654603 -0.2555267304069593
1840000000.0 -0.7885539276783883 -0.2553417266420355
1841000000.0 -0.788465498411587 -0.25511464611773554
1842000000.0 -0.7884744701219735 -0.25502457575913046
1843000000.0 -0.7884260033399141 -0.2548224519291888
1844000000.0 -0.7882944482929696 -0.2546337596393781
1845000000.0 -0.7881302221501109 -0.2545827622922513
1846000000.0 -0.788272772012801 -0.25439367967112053
1847000000.0 -0.7881096734680098 -0.2543261297917015
1848000000.0 -0.7881513555037277 -0.2540226980854894
1849000000.0 -0.7881360168891517 -0.2539695749359015
1850000000.0 -0.7882320662290541 -0.2538587892721948
1851000000.0 -0.7880135251508535 -0.2537200519928282
1852000000.0 -0.7880830435443245 -0.25350199657406436
1853000000.0 -0.7880754352894879 -0.2533877700599623
1854000000.0 -0.7879186807215511 -0.2532858867148573
1855000000.0 -0.7880695789139966 -0.25312161698446256
1856000000.0 -0.7879776511025223 -0.2530460909927562
1857000000.0 -0.7878230106780363 -0.2528273472352762
1858000000.0 -0.7878556117159298 -0.25272758140248164
1859000000.0 -0.7878883055982361 -0.2526431012666898
1860000000.0 -0.7878052121488764 -0.25253747188564873
1861000000.0 -0.7878073753961193 -0.252362652907092
1862000000.0 -0.787655495846438 -0.2524576893405793
1863000000.0 -0.7877208769259393 -0.2522020661790042
1864000000.0 -0.7877305820777968 -0.2520831131275137
1865000000.0 -0.7877213055818656 -0.2520211424876669
1866000000.0 -0.7877459358397338 -0.2517610744397172
1867000000.0 -0.7878436545211025 -0.2516918919140337
1868000000.0 -0.7875617588281546 -0.25158077873535456
1869000000.0 -0.7876098406161943 -0.2513847637933323
1870000000.0 -0.7876846420971307 -0.2513485317780505
1871000000.0 -0.7876439537976111 -0.2511502555608626
1872000000.0 -0.7875724867787613 -0.25104188010875955
1873000000.0 -0.7873808411814802 -0.25081240014769945
1874000000.0 -0.7875051828956787 -0.25084982793281485
1875000000.0 -0.7874268636302167 -0.25065618156347913
1876000000.0 -0.7874203569077289 -0.25052269373837743
1877000000.0 -0.7872892645521252 -0.25037176980537534
1878000000.0 -0.7873181450859807 -0.25019320640318227
1879000000.0 -0.7874205816722039 -0.25005913210571273
1880000000.0 -0.787415034567683 -0.2500420601121872
1881000000.0 -0.7873565128492923 -0.24993533064066067
1882000000.0 -0.7873690899438013 -0.2497611092888758
1883000000.0 -0.7871996616854282 -0.2496688657117376
1884000000.0 -0.7872281064092651 -0.24954098121583926
1885000000.0 -0.7869897490568302 -0.2494753561271659
1886000000.0 -0.7872335709389996 -0.24929503338198414
1887000000.0 -0.7870143535100689 -0.249172883475408
1888000000.0 -0.7871129974013376 -0.2490971365161991
1889000000.0 -0.7870160957286841 -0.2489066578491988
1890000000.0 -0.7870115419795012 -0.24884994685753684
1891000000.0 -0.7870656680962734 -0.24876786579223364
1892000000.0 -0.7869879799046327 -0.24867158133319908
1893000000.0 -0.7868336319888262 -0.24852616381857373
1894000000.0 -0.7868327970441418 -0.24831906668240952
1895000000.0 -0.7867957526370275 -0.24840729532284272
1896000000.0 -0.7868530659203838 -0.24817255932194734
1897000000.0 -0.786415517098808 -0.2482104980207713
1898000000.0 -0.7866586497185877 -0.24797854190744112
1899000000.0 -0.7868042268987597 -0.2479030735645525
1900000000.0 -0.78653417513176 -0.24781649280510484
1901000000.0 -0.7866749274797143 -0.24761576566410926
1902000000.0 -0.786482522365921 -0.2476002684298808
1903000000.0 -0.7866606423979882 -0.24752128990150035
1904000000.0 -0.7864339298282964 -0.24747163220229457
1905000000.0 -0.7864239763040121 -0.24739000093085456
1906000000.0 -0.7863396808381418 -0.24729461938687242
1907000000.0 -0.7862935836911245 -0.24730930383255448
1908000000.0 -0.7862693204925814 -0.24701345300200628
1909000000.0 -0.7861516577810727 -0.24701370922932955
1910000000.0 -0.7863187209809959 -0.24697246015718588
1911000000.0 -0.7861438396930643 -0.24674883029419037
1912000000.0 -0.7861044063492025 -0.24674270805115592
1913000000.0 -0.7860671025957201 -0.2466298003421214
1914000000.0 -0.7860866221753604 -0.2465665725108339
1915000000.0 -0.7860336992449415 -0.24672716057616464
1916000000.0 -0.785776707366218 -0.24645960236187894
1917000000.0 -0.785954735359944 -0.2464750319542258
1918000000.0 -0.7858938991294326 -0.24627414174512915
1919000000.0 -0.7858421530462836 -0.24627994756390947
1920000000.0 -0.785901436372112 -0.24615801905193263
1921000000.0 -0.7857163669346663 -0.24613081732093628
1922000000.0 -0.7856664731288497 -0.24617100914322004
1923000000.0 -0.7855912836788965 -0.24612575290529268
1924000000.0 -0.7856215105618984 -0.24595460412566725
1925000000.0 -0.7854512533982344 -0.24588191442009524
1926000000.0 -0.7854939025224931 -0.24580850308295582
1927000000.0 -0.7853962793387596 -0.24581311092253227
1928000000.0 -0.7852725180025004 -0.2457359738155441
1929000000.0 -0.7853271264176545 -0.24564570875052907
1930000000.0 -0.7851606537620708 -0.2456779184159132
1931000000.0 -0.7851519605852111 -0.24563572037766893
1932000000.0 -0.785083385585857 -0.2455703706268773
1933000000.0 -0.7849989777777612 -0.24556340178199937
1934000000.0 -0.7848463122297545 -0.24548356797288323
1935000000.0 -0.7848658538323529 -0.2453021011046885
1936000000.0 -0.7847584457768807 -0.2453798819496688
1937000000.0 -0.7848066720984795 -0.24542237356252602
1938000000.0 -0.7845233358648931 -0.24527851470586987
1939000000.0 -0.7845883579956477 -0.24523273373068438
1940000000.0 -0.7844021112915933 -0.24519501822290327
1941000000.0 -0.7844615646344336 -0.245304532603498
1942000000.0 -0.7842830719971858 -0.2452526842683033
1943000000.0 -0.7842268294005103 -0.2453256149939748
1944000000.0 -0.7841489107462681 -0.24518340186617607
1945000000.0 -0.7840432613392629 -0.24524763868616756
1946000000.0 -0.7838844516387935 -0.2452501887298263
1947000000.0 -0.783824514159637 -0.2452816321667993
1948000000.0 -0.783685477433196 -0.24525946324847503
1949000000.0 -0.7836581474316409 -0.24534936515843359
1950000000.0 -0.7836312174653994 -0.24527831204879114
1951000000.0 -0.7834862218443889 -0.24521931037431244
1952000000.0 -0.783371438030603 -0.24527563510310052
1953000000.0 -0.7832540447994814 -0.24528960043313655
1954000000.0 -0.7830999793191391 -0.24528735279234437
1955000000.0 -0.783038657330783 -0.24536980931707256
1956000000.0 -0.7830121288546505 -0.2452544332487664
1957000000.0 -0.7829343003800752 -0.2453231374178846
1958000000.0 -0.7828180139542188 -0.2454769365256033
1959000000.0 -0.7827104241993023 -0.2453773766094282
1960000000.0 -0.7826693602791446 -0.24539245347602134
1961000000.0 -0.7824660632948681 -0.24541413570829365
1962000000.0 -0.7824057996596266 -0.24538640020104585
1963000000.0 -0.7823570676544274 -0.24544000316615974
1964000000.0 -0.7822319415952896 -0.24537570536964642
1965000000.0 -0.7821046497750439 -0.24542238071439515
1966000000.0 -0.7819235467600115 -0.24545726881807403
1967000000.0 -0.7818082771871995 -0.2454663837908111
1968000000.0 -0.7817036698056369 -0.24558693822378272
1969000000.0 -0.7815706477795631 -0.24553422109558087
1970000000.0 -0.7814128375935102 -0.2455932542604892
1971000000.0 -0.7813872631157376 -0.24558764391989693
1972000000.0 -0.7812365477385543 -0.24562834195434033
1973000000.0 -0.781149713772679 -0.24563910869655953
1974000000.0 -0.7809812604114611 -0.24565012699825867
1975000000.0 -0.7809083798260527 -0.24571704326342253
1976000000.0 -0.7807222426803122 -0.24569988146626492
1977000000.0 -0.7805995271295085 -0.2457478556256253
1978000000.0 -0.7805506835790702 -0.2456889667541401
1979000000.0 -0.7804449428478968 -0.24568438290290007
1980000000.0 -0.7802866956190451 -0.24590126551492017
1981000000.0 -0.7801485086750996 -0.2457791199493594
1982000000.0 -0.7799770880699274 -0.2458165502395447
1983000000.0 -0.7798381924815033 -0.24592175220498852
1984000000.0 -0.7797570278671254 -0.24591200257246731
1985000000.0 -0.7797390779379574 -0.24586621275444095
1986000000.0 -0.7795636075930608 -0.24584326974155313
1987000000.0 -0.7793923818940265 -0.24590877412469864
1988000000.0 -0.7792915947026551 -0.24594129819293548
1989000000.0 -0.7791499018641349 -0.2458523646807315
1990000000.0 -0.7789779641331626 -0.245912598832721
1991000000.0 -0.778839871591687 -0.24610142139618696
1992000000.0 -0.7787651098410289 -0.2459817979360153
1993000000.0 -0.7787190806498143 -0.24603775185213378
1994000000.0 -0.7785450429955992 -0.24608956280609787
1995000000.0 -0.7783439667205889 -0.24615241950973796
1996000000.0 -0.7782568207182675 -0.24608314298157943
1997000000.0 -0.7782178994643872 -0.24606596558498822
1998000000.0 -0.7780307547151096 -0.24608800584673743
1999000000.0 -0.7779021084659744 -0.2461367955022461
2000000000.0 -0.7778989172655442 -0.24607902955019864
