! Created with skrf 1.8.0 (http://scikit-rf.org).
# Hz S RI R 50.0 
!freq ReS11 ImS11
50000.0 0.99903648 0.001845323
15049500.0 0.977340096 0.219878176
30049000.0 0.908046208 0.427711072
45048500.0 0.794566016 0.61559488
60048000.0 0.64524256 0.772913792
75047500.0 0.466463136 0.896538496
90047000.0 0.252787776 0.98205888
105046500.0 0.033256482 1.013528944
120046000.0 -0.188464064 0.998839872
135045500.0 -0.403904096 0.935148288
150045000.0 -0.600880064 0.824360192
165044500.0 -0.76905632 0.672004672
180044000.0 -0.899671552 0.485474176
195043500.0 -0.987204608 0.274158272
210043000.0 -1.024635314 0.04625182
225042500.0 -1.00958693 -0.18722
240042000.0 -0.94054208 -0.41262368
255041500.0 -0.82113152 -0.615941248
270041000.0 -0.657643712 -0.786885888
285040500.0 -0.460195296 -0.918777088
300040000.0 -0.240641088 -0.987992
315039500.0 -0.009193354 -1.016886712
330039000.0 0.225183664 -0.991423616
345038500.0 0.445222816 -0.917893824
360038000.0 0.641440448 -0.796653056
375037500.0 0.805443712 -0.63865536
390037000.0 0.92840896 -0.456334592
405036500.0 1.013481856 -0.24070424
420036000.0 1.05211878 -0.017712694
435035500.0 1.043755652 0.216720064
450035000.0 0.976095296 0.446032352
465034500.0 0.864055104 0.654995904
480034000.0 0.706173888 0.83250816
495033500.0 0.515332096 0.964319936
510033000.0 0.304453984 1.049740912
525032500.0 0.081956808 1.086282848
540032000.0 -0.14289896 1.07673228
555031500.0 -0.356426144 1.02097404
570031000.0 -0.555119744 0.921072576
585030500.0 -0.726661824 0.786500352
600030000.0 -0.87500992 0.639023424
615029500.0 -0.985237248 0.439367488
630029000.0 -1.046729924 0.219000032
645028500.0 -1.06573546 -0.01387979
660028000.0 -1.030886174 -0.255715904
675027500.0 -0.9380256 -0.478181408
690027000.0 -0.799769856 -0.681834112
705026500.0 -0.610821568 -0.849930112
720026000.0 -0.38855328 -0.97348448
735025500.0 -0.13708528 -1.041478396
750025000.0 0.137839792 -1.057957532
765024500.0 0.404115936 -0.99173696
780024000.0 0.688755072 -0.8425056
795023500.0 0.864053504 -0.668317248
810023000.0 1.018717646 -0.422162208
825022500.0 1.09590948 -0.154912272
840022000.0 1.10421848 0.117866816
855021500.0 1.040891288 0.372451072
870021000.0 0.925539456 0.587355456
885020500.0 0.773149184 0.767674304
900020000.0 0.615322816 0.928410752
915019500.0 0.42138256 1.027154208
930019000.0 0.226756336 1.092556
945018500.0 0.015209174 1.106426832
960018000.0 -0.180462336 1.091992024
975017500.0 -0.36441264 1.049390672
990017000.0 -0.5376912 0.96623296
1005016500.0 -0.699360448 0.848841216
1020016000.0 -0.845773056 0.713619968
1035015500.0 -0.963805184 0.566542656
1050015000.0 -1.047504304 0.402615904
1065014500.0 -1.110148904 0.176001728
1080014000.0 -1.1426996 -0.057432432
1095013500.0 -1.132955192 -0.286159872
1110013000.0 -1.075104352 -0.509439872
1125012500.0 -0.968729024 -0.74743296
1140012000.0 -0.803923136 -0.938979072
1155011500.0 -0.639714496 -1.115786432
1170011000.0 -0.313137504 -1.260736944
1185010500.0 0.039860112 -1.36783408
1200010000.0 0.4406632 -1.34534608
1215009500.0 0.8799984 -1.24037552
1230009000.0 1.268171072 -0.89359968
1245008500.0 1.481545088 -0.385777184
1260008000.0 1.432481632 0.142434
1275007500.0 1.288124576 0.463772832
1290007000.0 1.043471576 0.745986496
1305006500.0 0.795030528 0.882542784
1320006000.0 0.593833472 0.953100416
1335005500.0 0.439306336 0.986566912
1350005000.0 0.304086368 0.99874208
1365004500.0 0.140450848 1.069745656
1380004000.0 0.06201892 1.077964424
1395003500.0 -0.034470936 1.144292
1410003000.0 -0.182101376 1.247126816
1425002500.0 -0.400139232 1.341473088
1440002000.0 -0.798292608 1.433904896
1455001500.0 -1.376854656 1.306471232
1470001000.0 -1.889253632 0.636155904
1485000500.0 -1.749664576 -0.085199424
1500000000.0 -1.385304224 -0.430284416
