! Created with skrf 1.8.0 (http://scikit-rf.org).
# Hz S RI R 50.0 
!freq ReS11 ImS11
50000.0 0.014561078900105207 0.005608797406427894
15049500.0 -0.0002039249883361102 -0.0003454717961010611
30049000.0 0.00015851725855535082 0.0003326761494160989
45048500.0 0.0008885127212370738 -0.00015759306370922998
60048000.0 -0.0013861837956943494 0.00019755013893048805
75047500.0 -0.000152235987601066 -0.00040362777427207375
90047000.0 0.0023624191386783264 -0.001841968574598851
105046500.0 -0.0011793359247810756 0.00045869339300832335
120046000.0 4.9872581890322655e-05 0.0004912884655724136
135045500.0 -3.335107164442166e-05 0.0011526110195441
150045000.0 -0.00016471422038975118 0.00026373543954295127
165044500.0 0.0007504126774447481 0.0015489009662975099
180044000.0 0.0011364477513687056 -0.0006776525686002547
195043500.0 -0.0003445365844998322 0.0014095928118416342
210043000.0 -0.00023350165287613 0.0005607204526162164
225042500.0 2.6186545521414194e-05 -3.730336673155374e-05
240042000.0 -0.001447292671153398 0.00042189411126184
255041500.0 -9.845160399592803e-05 -0.00022058892155316735
270041000.0 0.002799062266950873 -0.005880131539169224
285040500.0 -0.000705963559457773 0.002617079073468767
300040000.0 -0.0009092369097889344 0.00031931599191839353
315039500.0 -0.000537702859748279 0.00460480587476778
330039000.0 -0.0016420177338861994 0.008882687088958003
345038500.0 -0.000798365070250626 0.0013880487647444113
360038000.0 -0.0015702605543979067 0.00018339119825079797
375037500.0 0.0011559508708150537 0.001711157550182388
390037000.0 -0.014699961100422773 0.011118285441552396
405036500.0 0.004377544292758262 5.618339187089731e-05
420036000.0 0.0025818677896545664 0.0015021135910725696
435035500.0 -0.001154045634013142 0.0013462642520948114
450035000.0 -0.0016731103485593108 -0.009763308322993835
465034500.0 0.013347800463711314 -0.0009161254350088441
480034000.0 0.007811702316090943 -0.0049310407929814325
495033500.0 -0.001148164246320277 -0.0014057741030136168
510033000.0 0.0006141639213169031 -0.000294292086885784
525032500.0 -0.032752299023914536 0.0574973936378845
540032000.0 0.005487078745419778 0.0027792775125125018
555031500.0 6.617887089094001e-05 -0.001679705836574225
570031000.0 0.00204601045419962 -0.0012445668741035924
585030500.0 0.02224777422597894 -0.027145016419268284
600030000.0 -0.0036683342631091435 -0.001569121086880178
615029500.0 -0.03229526671439959 0.007242104280405307
630029000.0 -0.0009823085887365503 0.007823108639826663
645028500.0 0.0010284752835169617 0.006820893267029424
660028000.0 -0.020467835857438672 0.005271846452605296
675027500.0 -0.0845358370714734 -0.04729422615218839
690027000.0 -0.0004715332091309068 -0.0005142621805580331
705026500.0 0.0018963062091139767 0.001261437094783084
720026000.0 0.006179463103250512 0.009916499902895531
735025500.0 0.01378824125369686 0.012736691242562248
750025000.0 0.011375348187306724 0.0025650052759870535
765024500.0 -0.02279125137159013 0.007398401028485569
780024000.0 -0.02265200654903984 0.0457611997324567
795023500.0 0.0005141475489874801 -0.0004968383542461347
810023000.0 0.00432985281677777 0.0005744644946682313
825022500.0 -0.0023495487128453547 -0.0066010484102076925
840022000.0 0.0020261152301218497 7.581812715439042e-05
855021500.0 -0.00931725785629476 -0.008226649429973094
870021000.0 -0.004802272373515495 0.004107497688760288
885020500.0 0.015835434933255888 -0.005807359966553704
900020000.0 -0.0017701637031949382 -0.0044256487305897926
915019500.0 -0.013717549911149988 -0.0038632444913938298
930019000.0 0.004960296470331106 -0.004281837181101689
945018500.0 -0.006158633595558964 0.0004194223576578317
960018000.0 0.015731843123539896 -0.00803585027269498
975017500.0 -0.0069679575107122645 -0.0025325405435602487
990017000.0 0.021580633925458982 -0.053610787109424025
1005016500.0 0.009230057495399072 -0.01160490318297872
1020016000.0 -0.005082955499770242 0.004367655153968573
1035015500.0 -0.028917428677486468 0.045820208528809116
1050015000.0 -0.029942819102607453 0.016294669636936637
1065014500.0 -0.006519675611891203 -0.045270964219992764
1080014000.0 0.0044513384926708945 0.012792099056938705
1095013500.0 -0.008879080031748159 -0.013066405336954757
1110013000.0 -0.003323492012030081 0.014500901828587898
1125012500.0 -0.022274613643026606 0.0536245845987446
1140012000.0 0.005505191272807452 -0.025319335121086625
1155011500.0 -0.11955767054622939 0.3050476221117801
1170011000.0 0.04047385991697294 0.09025664080647285
1185010500.0 0.0002649190539469635 -0.010281737185719831
1200010000.0 0.040508902484181215 0.017563401969984196
1215009500.0 0.01868506884084679 0.055752624171726425
1230009000.0 -0.0064864120978501616 0.005815055011569756
1245008500.0 -0.05021326346938326 0.058910841101513116
1260008000.0 0.04275210818930512 0.004114794162865835
1275007500.0 0.03829155148679474 0.015293918083663656
1290007000.0 -0.014568190546528963 -0.01299029543056748
1305006500.0 0.018647109685297508 -0.0390731118486735
1320006000.0 0.039291777108369105 0.014172032627150615
1335005500.0 0.02081269223571383 0.010717972830115392
1350005000.0 0.0500180300354954 0.01907216346468089
1365004500.0 -0.04164178517025808 0.12277643446717401
1380004000.0 0.06690762997955003 0.1061351966184201
1395003500.0 -0.0042826402056767585 -0.09418169424233205
1410003000.0 0.062245693194953544 0.02848131611172312
1425002500.0 -0.018587324204811406 -0.0214284761891461
1440002000.0 0.013338633768013293 -0.05810053045386572
1455001500.0 -0.026399493518050106 0.04383015473119725
1470001000.0 -0.0040195667023898716 0.0213598798137333
1485000500.0 -0.008104753309643912 -0.016247545401856966
1500000000.0 -0.008816059391409843 0.07024272988286716
