! Created with skrf 1.8.0 (http://scikit-rf.org).
# Hz S RI R 50.0 
!freq ReS11 ImS11
50000.0 12.932913597333865 4.42822954150923
15049500.0 -0.03576759117876343 -0.2625993621516246
30049000.0 0.20816079360842246 0.4825063785322463
45048500.0 0.4746464348638285 1.8494925853646726
60048000.0 -1.6975910818947295 -4.767069535198721
75047500.0 0.08560213838319312 0.7160752609428825
90047000.0 -5.13932592648593 -5.217203919924609
105046500.0 -2.6026866853486346 -1.3326694572742273
120046000.0 -0.5491110324582192 -0.9914469400134601
135045500.0 0.39754014021796 -0.7097248599775864
150045000.0 0.05118898446877337 -1.7259768491838747
165044500.0 0.7356628107629316 3.1573763186292454
180044000.0 1.5854400085460214 2.0101736001217048
195043500.0 -0.2961327285186111 -3.147300227930708
210043000.0 -0.8685785561505661 1.0640911521930172
225042500.0 -1.0926671055862982 0.18032903831462185
240042000.0 -0.6080222361804867 -2.1848920326229004
255041500.0 0.5065956571888043 -0.8900710445384958
270041000.0 1.9542528530689829 -5.988960320413042
285040500.0 -2.2210166286637176 -1.65149119392099
300040000.0 -1.02412848898511 0.8857554112154483
315039500.0 0.05493070883042814 -2.0597939116830872
330039000.0 -11.489078001246714 0.7321106105329505
345038500.0 0.4642207769591146 0.17148144155422945
360038000.0 0.2546566714569199 1.099941165066526
375037500.0 0.6561393245841759 -1.4527893127129108
390037000.0 1.337161664345537 -1.2958738566670818
405036500.0 0.204726941636071 -1.5385098562568473
420036000.0 -0.724165747359774 -1.5275773865494542
435035500.0 -0.7121817460223216 -0.5218610838449553
450035000.0 -1.4095334386358287 1.6857520724198576
465034500.0 -2.102776085402537 2.686488459792329
480034000.0 -3.998955092850131 2.673928864954362
495033500.0 1.8329563370671738 -0.5822529792943281
510033000.0 1.0712349123675045 0.1982540324704053
525032500.0 -14.196272559243114 0.4666243194361
540032000.0 -0.8124412222940914 1.9066131986015729
555031500.0 1.0277733111912004 -0.6026514261307084
570031000.0 0.3467719065794754 2.2479307689546926
585030500.0 -6.022973911576105 0.5229392295235699
600030000.0 1.469276138987077 0.967388536681765
615029500.0 3.787705156563994 -5.762553904202481
630029000.0 -1.4435364317219925 1.30090702547875
645028500.0 -1.5834434951729153 -1.2501772215467262
660028000.0 1.1567772495655197 -2.625940078891746
675027500.0 -4.032857244329186 -11.75853882958028
690027000.0 -0.9452854040629218 -0.07915004231147817
705026500.0 0.2726884208140895 0.41966635563868226
720026000.0 4.082178303778623 1.0153133807786248
735025500.0 -2.457681717961831 -1.9556133801633164
750025000.0 -0.9732275620638052 0.8969615407020366
765024500.0 0.7156527022697542 -4.642850799671088
780024000.0 -0.11117545604345946 0.7654912092824498
795023500.0 -1.1167010407062505 0.07166311780366702
810023000.0 -0.17494941275726786 0.393648281633864
825022500.0 -0.06687674156384762 1.667861458787575
840022000.0 1.1331958735682686 0.3405060756570492
855021500.0 -2.7949448536372565 0.9429807970771015
870021000.0 1.3673080198351972 0.6454489769357343
885020500.0 0.41971190768065525 -1.2836445101876353
900020000.0 -0.6364307478709021 -0.4149138736290003
915019500.0 -0.04840787304504989 -1.3667873177371803
930019000.0 -0.3006348049601419 -0.6806089236243817
945018500.0 -1.5779112063475622 0.49150620421023594
960018000.0 -5.309950405565985 -1.8196476378261106
975017500.0 0.6558149924611543 0.536761435733836
990017000.0 -2.6511579688578126 -3.0210799946861435
1005016500.0 -1.084240486705165 2.024231617493943
1020016000.0 -0.6104773809580636 -0.2029739142894087
1035015500.0 3.6019280474960285 -0.08203391388595518
1050015000.0 -1.3371207822485207 1.0892839294667243
1065014500.0 -3.4830761127779066 -2.5254923894174617
1080014000.0 -0.7835517287149634 -0.7797215186482503
1095013500.0 2.072790839592368 0.22536083206503144
1110013000.0 -0.21602880348187256 -0.60955513242985
1125012500.0 -2.643103680390482 3.248090639490041
1140012000.0 2.049650947983062 -0.11332324981371744
1155011500.0 0.0956968450290069 -3.5417496136245297
1170011000.0 0.7539849356566557 -1.5134918427999757
1185010500.0 0.4696716279797392 0.4446456625943959
1200010000.0 0.28577062346368226 -1.9362851550570117
1215009500.0 -1.7483542134073808 1.2718175265164833
1230009000.0 -1.0107768608183934 -0.3441611694977905
1245008500.0 -1.4466961582834792 3.5630964761261326
1260008000.0 -1.171819291504349 -0.4653269625570731
1275007500.0 -0.16514500469064713 1.2335343413796962
1290007000.0 -1.614739927408487 -0.18010223530707972
1305006500.0 -2.5409268577015522 -0.23577086520053295
1320006000.0 1.940488575682898 -2.3088037384912448
1335005500.0 -0.3626485185765422 -0.7880396978420469
1350005000.0 -2.82286187352139 2.419703620074773
1365004500.0 1.3419102080899998 -1.9290891807588542
1380004000.0 -9.89060670323747 -1.2018870381357345
1395003500.0 -2.5937977150989315 -3.0513121060850654
1410003000.0 2.735402184293395 -0.3987543542908783
1425002500.0 -1.6836200843367748 0.007019402387602815
1440002000.0 -0.1892736761589745 1.7433837610307303
1455001500.0 0.18877322649757097 0.9574801039131206
1470001000.0 -0.1506806328010629 -0.22283197955601014
1485000500.0 0.13777755716982365 1.170652436148657
1500000000.0 -1.4356470516476914 1.208842030893087
