! Created with skrf 1.8.0 (http://scikit-rf.org).
# Hz S RI R 50.0 
!freq ReS11 ImS11
1000000.0 0.9999797658466437 -0.00010152095408398894
8495000.0 0.9999586694640199 3.574553464645663e-05
15990000.0 0.9999273805246564 -0.00011481441846107841
23485000.0 1.0000566437108211 -7.106239142117053e-05
30980000.0 0.9999696932742885 -5.51843412047544e-05
38475000.0 1.0000214318259781 -0.00012080816992608544
45970000.0 0.9999390324035702 -0.00017585558523639362
53465000.0 1.0000035088115977 -0.00014695713823224615
60960000.0 0.9998834381461285 -9.920566179825991e-05
68455000.0 0.9999137339232308 -0.00013645142473418413
75950000.0 0.9999291943978925 -0.00018753257854970984
83445000.0 0.999796308119784 -0.00013354176399575217
90940000.0 0.9998974817892424 -0.00016967063047418124
98435000.0 0.999778200358242 -2.653686240971389e-05
105930000.0 0.9998596461195041 7.197509163660338e-05
113425000.0 0.9998119106048668 -2.1647341555665584e-06
120920000.0 0.9999377224608007 0.00013574443104300896
128415000.0 0.9997870747829182 7.274387246138161e-05
135910000.0 0.9997440540103711 0.00013911627760229784
143405000.0 0.9998299972867223 0.00015406613750454585
150900000.0 0.9998554670556625 0.00023512790085369347
158395000.0 0.9998606032178587 0.00033002174852978986
165890000.0 0.9999394586984798 0.00021699060790852435
173385000.0 0.9999273207097403 0.00030358706829335916
180880000.0 1.0000398527353105 0.0002499993745020864
188375000.0 0.999954159944523 0.0002790237273722691
195870000.0 1.0000104481473968 0.0002790893360014143
203365000.0 0.9998896219693009 0.00022292112443954602
210860000.0 0.9999853176703905 0.00014754855879644085
218355000.0 0.9999836677842155 0.000137947107666023
225850000.0 0.9999074462837692 8.171033791565065e-05
233345000.0 0.999948509380972 7.028556973283832e-05
240840000.0 0.9998497881423426 1.1990318462578284e-05
248335000.0 0.999861897056061 -1.0229858042530771e-05
255830000.0 0.9997479912953329 5.2879956351833466e-05
263325000.0 0.9997660537115701 -0.00010296430909231424
270820000.0 0.9995651220561634 -5.4628512804209475e-05
278315000.0 0.9997188162202155 -0.00012899647273533656
285810000.0 0.9996814225244797 -7.872528938165751e-05
293305000.0 0.999627954985422 -1.395116859915083e-05
300800000.0 0.9996630843978372 7.116967034429981e-06
308295000.0 0.9996496702123596 0.00010453015933646156
315790000.0 0.9997123054956829 0.00013773222737780818
323285000.0 0.9996280393389515 0.00020782961482827288
330780000.0 0.9997455512466614 0.00022467276028363632
338275000.0 0.999794917239673 0.00032801203731388503
345770000.0 0.9997556239363119 0.000395030005708728
353265000.0 0.9998395602590874 0.0004210450825426757
360760000.0 0.9998103387228627 0.00048251421409423417
368255000.0 0.9998441466126694 0.0006048401035183327
375750000.0 0.9999790096530129 0.0005579288528518853
383245000.0 0.9999873899816781 0.000599608859354246
390740000.0 0.9999275363630408 0.0005896174219013898
398235000.0 1.000008198065526 0.0006062704739781252
405730000.0 1.0000673149697479 0.0006137064920597161
413225000.0 0.9999603955073475 0.000648280596542634
420720000.0 0.9999463421181942 0.0005155612830038465
428215000.0 0.9998327684733581 0.0005385777848556934
435710000.0 0.9998539012115552 0.0005058955680742888
443205000.0 0.9998800890348493 0.0004439602014442481
450700000.0 0.9998378065546415 0.0004152863440164531
458195000.0 0.9997596953726984 0.00044162392474619133
465690000.0 0.9998021694606111 0.00035651967737881
473185000.0 0.9997212666528694 0.00036585663510981187
480680000.0 0.9997586408009322 0.00028898510214953244
488175000.0 0.9996363556627136 0.00027635951444249755
495670000.0 0.9996341391284762 0.00034565661288395546
503165000.0 0.9996852278514806 0.00039024044436564967
510660000.0 0.9996996465359631 0.00030806791809525626
518155000.0 0.9996655858712244 0.0003317054281452685
525650000.0 0.9997526220157867 0.0003325025545979725
533145000.0 0.9997140938296308 0.00033427953263256716
540640000.0 0.9997412272706971 0.0004231976153199811
548135000.0 0.9998228284179229 0.0005327301153842374
555630000.0 0.9997963688790661 0.0005627878363713507
563125000.0 0.9998031409772138 0.0005292633714670769
570620000.0 0.9999206288279634 0.0005021933284464853
578115000.0 0.9998530060350233 0.00048663254159989685
585610000.0 0.9999287162259216 0.0005609857672137343
593105000.0 1.0000599177237055 0.0005887291925902287
600600000.0 0.999934331483164 0.0005513469242104267
608095000.0 1.0000157030244767 0.0005752738003648257
615590000.0 0.9998771118690433 0.000523446668682808
623085000.0 0.9998836486476598 0.0005450366995452928
630580000.0 0.9999981381233962 0.0005427049552953128
638075000.0 0.9999915701910447 0.0006219980133943515
645570000.0 0.9998187847909666 0.0004855800233964782
653065000.0 0.9998775038503677 0.0005365376586919687
660560000.0 0.9997812458610619 0.0004708100313855252
668055000.0 0.999655386618949 0.0005040026452241592
675550000.0 0.9995304511548583 0.0005094506864511036
683045000.0 0.9995409189009961 0.000371232991241469
690540000.0 0.9995343478678634 0.00033991986425993065
698035000.0 0.9995809747043296 0.0004320947355538416
705530000.0 0.9993878521216985 0.0004130414188861353
713025000.0 0.9993545868966918 0.00045341453336338326
720520000.0 0.9994774298670506 0.0005000633837411751
728015000.0 0.9994847983236854 0.0005059118700719965
735510000.0 0.9994920718084275 0.0004689720048958555
743005000.0 0.9994782145244618 0.0004856434044673819
750500000.0 0.9996203918672211 0.00046023636496462107
757995000.0 0.9996194662822766 0.00046034491462595723
765490000.0 0.9996854829202085 0.0004056241571130285
772985000.0 0.9996230394259671 0.00033792749106627035
780480000.0 0.9996752776668913 0.00035371101138609296
787975000.0 0.999746539150716 0.0003395592508071077
795470000.0 0.9998162997869664 0.00020791247225744966
802965000.0 0.9996837702572124 0.0002537330047210067
810460000.0 0.9998066060307201 0.0002542559499474973
817955000.0 0.9997910794155709 0.00013836272265519258
825450000.0 0.9997918532261638 6.737088798625216e-05
832945000.0 0.9998124038633404 7.176286217784094e-05
840440000.0 0.9997004730821879 3.3218633709453754e-06
847935000.0 0.9996298674068216 -7.445661881818289e-06
855430000.0 0.9995710716524076 -0.0001579561531758075
862925000.0 0.9994733325876053 -0.0001332630147799308
870420000.0 0.9995713957896618 -0.00017986133011592035
877915000.0 0.9994242330097134 -0.00025583729880382524
885410000.0 0.9993889255721138 -0.0002535512833537957
892905000.0 0.9995634616545214 -0.00024125677097661108
900400000.0 0.999353742065628 -0.00021963672154246043
907895000.0 0.9994597224725312 -0.00020477529017267832
915390000.0 0.9993522939573046 -0.00022848788509837972
922885000.0 0.9993599081464397 -0.00022094846608034573
930380000.0 0.9993818904257804 -0.00016351020376939365
937875000.0 0.9994523940571911 -0.0001419528273265896
945370000.0 0.9994902222726578 5.734563025988488e-05
952865000.0 0.999395566607898 1.2369861157868898e-05
960360000.0 0.999461284212115 -5.4665816695151745e-06
967855000.0 0.9994671454682188 4.144930514005629e-05
975350000.0 0.9995792695211297 0.00010823153104290754
982845000.0 0.9996109765636566 0.00015834686312209633
990340000.0 0.9996271627491308 0.0001028080849874726
997835000.0 0.9996895635570363 0.00019603471113172579
1005330000.0 0.9996786527823235 0.0001751712090317503
1012825000.0 0.9996082072047718 0.000244203890526339
1020320000.0 0.9996985842083206 0.0002764763492330182
1027815000.0 0.9996403007937003 0.0001333972284940638
1035310000.0 0.9996594213998499 0.0001700872296161953
1042805000.0 0.9995858307373322 8.817067497267361e-05
1050300000.0 0.9996244750155436 2.08187318782963e-05
1057795000.0 0.9995945054212805 7.37687004385591e-05
1065290000.0 0.9995256741665098 -8.572167765818596e-05
1072785000.0 0.999462006451496 -0.00010052958953413283
1080280000.0 0.9994474957368824 -3.729289616189819e-05
1087775000.0 0.999383699269463 -0.00012656780021893537
1095270000.0 0.9993992517136623 2.50968298080866e-06
1102765000.0 0.9993898227062322 -2.9634911235902084e-05
1110260000.0 0.9993528964812712 5.629311317483227e-05
1117755000.0 0.9992644491081507 2.3032063410652603e-05
1125250000.0 0.999418430759301 8.052673845334041e-05
1132745000.0 0.9993508711328587 0.0001559064353249025
1140240000.0 0.9993994570018419 0.00021192620513362366
1147735000.0 0.9994950851616187 0.00034576748056357686
1155230000.0 0.9994189679038112 0.00045407197632839206
1162725000.0 0.9994796678569576 0.0005708831462978355
1170220000.0 0.9995447414274036 0.0005903607686700914
1177715000.0 0.9996722484589942 0.0007600460837141526
1185210000.0 0.999811289429657 0.0007729863934885092
1192705000.0 0.9997705335467483 0.0009003985947697228
1200200000.0 0.999803296194315 0.0009139738525194036
1207695000.0 0.9997421246015017 0.0010865761884024574
1215190000.0 0.9999175411890768 0.0010259505728954582
1222685000.0 0.9998766174889581 0.0010405678501838925
1230180000.0 0.9997821654323812 0.0011774271315289316
1237675000.0 0.9998297497184725 0.0011142664564810947
1245170000.0 0.9997489963841614 0.001183812970350776
1252665000.0 0.9997168367998325 0.0011838388155346496
1260160000.0 0.9996737537018014 0.0010974150422387661
1267655000.0 0.999577365419899 0.0012251585208659984
1275150000.0 0.9995868272887936 0.0012829927247471947
1282645000.0 0.9994809687476146 0.0011622766649037435
1290140000.0 0.9993337394252156 0.0012353177118959073
1297635000.0 0.9993587454375842 0.0012475182618678377
1305130000.0 0.9992155806941573 0.0013349073073022693
1312625000.0 0.9992081371025121 0.0012570409050972613
1320120000.0 0.9992726335650712 0.0014097184832780852
1327615000.0 0.9992506618491334 0.0014176558379859433
1335110000.0 0.9991834485344553 0.0014404099017179862
1342605000.0 0.9992486685905452 0.0015054780071245058
1350100000.0 0.9992059402044046 0.0014593016699234959
1357595000.0 0.99926786317172 0.0015687468626302578
1365090000.0 0.9992869687613244 0.0016241984361593383
1372585000.0 0.9992901509046269 0.0016261302228324005
1380080000.0 0.999384256277999 0.0016550338884858433
1387575000.0 0.9994367933562859 0.0017456093705668586
1395070000.0 0.9993461908970998 0.001755764954120704
1402565000.0 0.9995416573944721 0.0017317081729272999
1410060000.0 0.9995355988885929 0.0018293316026804297
1417555000.0 0.999576803077551 0.0018024032725590016
1425050000.0 0.9995747207446081 0.0018019036780383508
1432545000.0 0.9995480567750756 0.0018093770725932472
1440040000.0 0.9995931665168855 0.0017061965390754129
1447535000.0 0.9995858609405109 0.0017539323876641418
1455030000.0 0.9994392413422079 0.0016766874893674962
1462525000.0 0.9993591126891505 0.0014763020489819006
1470020000.0 0.999257827757889 0.0015360732983685942
1477515000.0 0.999340083644273 0.0013990128847515874
1485010000.0 0.9990970212017387 0.0013592872836649431
1492505000.0 0.9990141260104386 0.0012211410632580104
1500000000.0 0.9989673094548259 0.0012638985805335774
