! Created with skrf 1.8.0 (http://scikit-rf.org).
# Hz S RI R 50.0 
!freq ReS11 ImS11
50000.0 0.997810624 0.001830203
15049500.0 0.977075648 0.21961168
30049000.0 0.908005504 0.4281064
45048500.0 0.794771136 0.616017024
60048000.0 0.645149312 0.773151808
75047500.0 0.466574208 0.896184064
90047000.0 0.252863168 0.981694784
105046500.0 0.033009962 1.013747454
120046000.0 -0.188297232 0.99905024
135045500.0 -0.402983392 0.935976832
150045000.0 -0.600803008 0.824497984
165044500.0 -0.769523712 0.672281472
180044000.0 -0.899512576 0.486085824
195043500.0 -0.986860224 0.274409568
210043000.0 -1.024858714 0.04642468
225042500.0 -1.009572984 -0.187236624
240042000.0 -0.940733056 -0.412101824
255041500.0 -0.821368 -0.615961728
270041000.0 -0.658673856 -0.78718912
285040500.0 -0.460038976 -0.918044736
300040000.0 -0.241076032 -0.988024576
315039500.0 -0.007445506 -1.015823722
330039000.0 0.225011088 -0.990722496
345038500.0 0.44311904 -0.915976448
360038000.0 0.640663232 -0.797553984
375037500.0 0.806737408 -0.639144832
390037000.0 0.939209024 -0.447800896
405036500.0 1.014671326 -0.242934704
420036000.0 1.053390144 -0.017967886
435035500.0 1.043358208 0.217627488
450035000.0 0.977532352 0.442985792
465034500.0 0.866659904 0.656955968
480034000.0 0.707799168 0.832391104
495033500.0 0.515465568 0.966100928
510033000.0 0.304782848 1.05295694
525032500.0 0.07968748 1.089996816
540032000.0 -0.142227584 1.078971984
555031500.0 -0.35921248 1.020992636
570031000.0 -0.554365312 0.92176352
585030500.0 -0.723225216 0.782891072
600030000.0 -0.872207808 0.63659072
615029500.0 -0.982021824 0.44341632
630029000.0 -1.048371196 0.221327792
645028500.0 -1.064377664 -0.01189662
660028000.0 -1.028421998 -0.248068544
675027500.0 -0.944025664 -0.473560224
690027000.0 -0.800022592 -0.682088192
705026500.0 -0.60961632 -0.847500288
720026000.0 -0.391318016 -0.975791104
735025500.0 -0.132485568 -1.040396332
750025000.0 0.142127728 -1.05470848
765024500.0 0.405403968 -0.986749184
780024000.0 0.65569056 -0.82410112
795023500.0 0.864304064 -0.668543488
810023000.0 1.021883606 -0.420612576
825022500.0 1.098078608 -0.157708512
840022000.0 1.102006672 0.122951928
855021500.0 1.039086224 0.369834752
870021000.0 0.923930688 0.578999744
885020500.0 0.774023232 0.75573312
900020000.0 0.613662144 0.92612736
915019500.0 0.41475632 1.03210783
930019000.0 0.228397856 1.088404896
945018500.0 0.012874038 1.106144312
960018000.0 -0.178499632 1.090152504
975017500.0 -0.366967872 1.038047672
990017000.0 -0.541394496 0.954613952
1005016500.0 -0.694298752 0.848189248
1020016000.0 -0.848543424 0.716681152
1035015500.0 -0.952147712 0.549300096
1050015000.0 -1.060699344 0.40343808
1065014500.0 -1.115571144 0.168958096
1080014000.0 -1.137971872 -0.052327008
1095013500.0 -1.122577904 -0.27616
1110013000.0 -1.072511432 -0.498814816
1125012500.0 -0.979446976 -0.742269312
1140012000.0 -0.811681728 -0.91569504
1155011500.0 -0.56694816 -1.063450576
1170011000.0 -0.250802928 -1.277346624
1185010500.0 0.049698604 -1.37897264
1200010000.0 0.455440288 -1.360816256
1215009500.0 0.87786624 -1.221076368
1230009000.0 1.265517952 -0.890253632
1245008500.0 1.463733184 -0.387638752
1260008000.0 1.451690688 0.14021296
1275007500.0 1.297068 0.486367392
1290007000.0 1.037585736 0.741423808
1305006500.0 0.799541952 0.87120768
1320006000.0 0.593152384 0.936359616
1335005500.0 0.454160768 0.98584192
1350005000.0 0.311173248 1.008216739
1365004500.0 0.205866592 1.079737664
1380004000.0 0.069151184 1.08692288
1395003500.0 -0.04809328 1.129651312
1410003000.0 -0.212588816 1.223709584
1425002500.0 -0.407044512 1.333470112
1440002000.0 -0.771987904 1.423611776
1455001500.0 -1.417101152 1.312998304
1470001000.0 -1.889155776 0.654699776
1485000500.0 -1.743972544 -0.096315064
1500000000.0 -1.399692896 -0.40858624
