! Created with skrf 1.8.0 (http://scikit-rf.org).
# Hz S RI R 50.0 
!freq ReS11 ImS11
50000.0 0.997971072 0.001781379
15049500.0 0.977446144 0.220265344
30049000.0 0.907838208 0.427518784
45048500.0 0.794383936 0.615930112
60048000.0 0.645241472 0.773204416
75047500.0 0.466731744 0.89673312
90047000.0 0.252791584 0.981609088
105046500.0 0.032962136 1.014059902
120046000.0 -0.188072416 0.998611456
135045500.0 -0.40355216 0.934502272
150045000.0 -0.600726208 0.82436192
165044500.0 -0.769533376 0.671980096
180044000.0 -0.899818496 0.485850528
195043500.0 -0.986754752 0.274167136
210043000.0 -1.02512765 0.045971576
225042500.0 -1.009364248 -0.187189216
240042000.0 -0.940239872 -0.412015488
255041500.0 -0.8211472 -0.615804096
270041000.0 -0.658618816 -0.786872256
285040500.0 -0.45937504 -0.917743168
300040000.0 -0.241029264 -0.989007936
315039500.0 -0.007316415 -1.017586946
330039000.0 0.224969056 -0.990591744
345038500.0 0.445651168 -0.918891968
360038000.0 0.642075648 -0.797356096
375037500.0 0.805561472 -0.63958528
390037000.0 0.93523712 -0.457305792
405036500.0 1.012123346 -0.242485776
420036000.0 1.052775504 -0.01952145
435035500.0 1.046668888 0.217324752
450035000.0 0.981336512 0.44376656
465034500.0 0.866092352 0.659128128
480034000.0 0.708441792 0.832886016
495033500.0 0.515623104 0.964875968
510033000.0 0.304173632 1.049909832
525032500.0 0.079324096 1.090546848
540032000.0 -0.144623088 1.079440592
555031500.0 -0.356682336 1.02172625
570031000.0 -0.5551136 0.921986432
585030500.0 -0.72172352 0.781610304
600030000.0 -0.873506176 0.63906976
615029500.0 -0.981739008 0.442065376
630029000.0 -1.0523479 0.220160352
645028500.0 -1.060940028 -0.01246448
660028000.0 -1.025864362 -0.252046016
675027500.0 -0.943535488 -0.472413248
690027000.0 -0.801379648 -0.67476384
705026500.0 -0.612460224 -0.850380928
720026000.0 -0.390097376 -0.975127232
735025500.0 -0.129520152 -1.042890072
750025000.0 0.13460448 -1.045372008
765024500.0 0.407114016 -0.987935936
780024000.0 0.67792928 -0.884667072
795023500.0 0.869151232 -0.669444224
810023000.0 1.014172196 -0.42068976
825022500.0 1.099524024 -0.154298752
840022000.0 1.103286744 0.11798
855021500.0 1.038710236 0.366722016
870021000.0 0.926987328 0.5852256
885020500.0 0.76497728 0.764376128
900020000.0 0.61140384 0.936111104
915019500.0 0.42418512 1.03523934
930019000.0 0.220053568 1.092155456
945018500.0 0.008667208 1.101588728
960018000.0 -0.178032512 1.089101672
975017500.0 -0.360155968 1.04954028
990017000.0 -0.548348992 0.95326464
1005016500.0 -0.693447936 0.853154944
1020016000.0 -0.830915328 0.710149248
1035015500.0 -0.957345984 0.556701056
1050015000.0 -1.068919536 0.381755136
1065014500.0 -1.120554088 0.168352848
1080014000.0 -1.128938792 -0.066961272
1095013500.0 -1.129770872 -0.28214112
1110013000.0 -1.063499212 -0.518913344
1125012500.0 -0.984636864 -0.746243456
1140012000.0 -0.80603392 -0.930755136
1155011500.0 -0.5515776 -1.10929632
1170011000.0 -0.300912672 -1.301646336
1185010500.0 0.04163408 -1.361374848
1200010000.0 0.437317024 -1.364045024
1215009500.0 0.853857088 -1.210302
1230009000.0 1.284461248 -0.87424256
1245008500.0 1.463527904 -0.397611008
1260008000.0 1.470117568 0.064455436
1275007500.0 1.265212064 0.479307808
1290007000.0 1.015945196 0.732919616
1305006500.0 0.803063936 0.855956736
1320006000.0 0.587908288 0.94362848
1335005500.0 0.434615232 0.963950272
1350005000.0 0.308992448 1.015717268
1365004500.0 0.176771792 1.047238348
1380004000.0 0.070994384 1.088688968
1395003500.0 -0.059296768 1.132728216
1410003000.0 -0.197772576 1.237829216
1425002500.0 -0.427004096 1.309851648
1440002000.0 -0.773817152 1.452937728
1455001500.0 -1.381397024 1.273259744
1470001000.0 -1.878652352 0.613787904
1485000500.0 -1.7390672 -0.081822928
1500000000.0 -1.439058528 -0.418205216
