! Created with skrf 1.8.0 (http://scikit-rf.org).
# Hz S RI R 50.0 
!freq ReS11 ImS11 ReS21 ImS21 ReS12 ImS12 ReS22 ImS22
50000.0 0.998741376 0.001354254 -9.3868e-05 -0.00011418 0.0 0.0 0.0 0.0
15049500.0 0.97706848 0.21954064 7.937e-05 5.1276e-05 0.0 0.0 0.0 0.0
30049000.0 0.907602432 0.428061984 1.8876e-05 -6.057e-06 0.0 0.0 0.0 0.0
45048500.0 0.79452032 0.616263616 3.1085e-05 3.529e-05 0.0 0.0 0.0 0.0
60048000.0 0.64493632 0.772677312 8.676e-06 3.365e-06 0.0 0.0 0.0 0.0
75047500.0 0.46642128 0.896465792 4.9979e-05 3.288e-05 0.0 0.0 0.0 0.0
90047000.0 0.252629664 0.981470848 2.8932e-05 3.1741e-05 0.0 0.0 0.0 0.0
105046500.0 0.033172842 1.013629556 1.1347e-05 2.5822e-05 0.0 0.0 0.0 0.0
120046000.0 -0.18824488 0.998642688 -2.3151e-05 2.2886e-05 0.0 0.0 0.0 0.0
135045500.0 -0.403532288 0.934902272 -1.6959e-05 0.000115637 0.0 0.0 0.0 0.0
150045000.0 -0.600721792 0.824878272 -3.0501e-05 0.000103612 0.0 0.0 0.0 0.0
165044500.0 -0.768769216 0.67213696 8.608e-06 5.7907e-05 0.0 0.0 0.0 0.0
180044000.0 -0.898882432 0.485257696 -2.958e-06 8.9943e-05 0.0 0.0 0.0 0.0
195043500.0 -0.986136064 0.274552192 -4.7772e-05 3.6799e-05 0.0 0.0 0.0 0.0
210043000.0 -1.024448634 0.046767028 -5.2361e-05 5.9314e-05 0.0 0.0 0.0 0.0
225042500.0 -1.009047032 -0.186555904 -7.8102e-05 5.9218e-05 0.0 0.0 0.0 0.0
240042000.0 -0.94106432 -0.411218912 -7.0885e-05 2.3213e-05 0.0 0.0 0.0 0.0
255041500.0 -0.820963648 -0.614665536 -5.6683e-05 4.6792e-05 0.0 0.0 0.0 0.0
270041000.0 -0.657809728 -0.785967168 -2.8705e-05 1.5503e-05 0.0 0.0 0.0 0.0
285040500.0 -0.459721472 -0.916818816 -3.6025e-05 -1.82e-06 0.0 0.0 0.0 0.0
300040000.0 -0.24046576 -0.987483392 -0.000183225 0.000111228 0.0 0.0 0.0 0.0
315039500.0 -0.009326842 -1.014857412 -0.000620239 9.7721e-05 0.0 0.0 0.0 0.0
330039000.0 0.221834128 -0.993806784 0.000578027 0.000219344 0.0 0.0 0.0 0.0
345038500.0 0.44644304 -0.917790656 -6.416e-05 0.000313698 0.0 0.0 0.0 0.0
360038000.0 0.638516096 -0.798084672 -8.0527e-05 0.00039394 0.0 0.0 0.0 0.0
375037500.0 0.803833408 -0.640478336 -0.000140283 -0.000132075 0.0 0.0 0.0 0.0
390037000.0 0.925888064 -0.451278272 1.1987e-05 -0.00056153 0.0 0.0 0.0 0.0
405036500.0 1.012096524 -0.244301008 0.000550564 -0.000312719 0.0 0.0 0.0 0.0
420036000.0 1.053192736 -0.019559308 -0.000172118 0.000153504 0.0 0.0 0.0 0.0
435035500.0 1.042821288 0.216904688 0.000148861 -0.000227719 0.0 0.0 0.0 0.0
450035000.0 0.977780288 0.452083392 -0.000142412 -0.00028118 0.0 0.0 0.0 0.0
465034500.0 0.866231744 0.656400768 -0.00010938 -0.000514021 0.0 0.0 0.0 0.0
480034000.0 0.706764608 0.82880064 0.000637368 -0.000477299 0.0 0.0 0.0 0.0
495033500.0 0.516150848 0.961018688 -0.000689508 -0.001197079 0.0 0.0 0.0 0.0
510033000.0 0.302413568 1.051892876 0.000100159 -0.000808869 0.0 0.0 0.0 0.0
525032500.0 0.081799424 1.085261224 3.2412e-05 -0.000530019 0.0 0.0 0.0 0.0
540032000.0 -0.142601056 1.07675064 -0.000511922 -0.000437943 0.0 0.0 0.0 0.0
555031500.0 -0.35532544 1.022709728 0.000296595 -0.001047717 0.0 0.0 0.0 0.0
570031000.0 -0.553204096 0.924702592 0.000741998 -0.000574432 0.0 0.0 0.0 0.0
585030500.0 -0.716398592 0.787291392 0.000831967 -0.000300311 0.0 0.0 0.0 0.0
600030000.0 -0.86933184 0.637919296 0.000918609 -0.00027339 0.0 0.0 0.0 0.0
615029500.0 -0.980332416 0.439952352 0.001295985 -0.000474575 0.0 0.0 0.0 0.0
630029000.0 -1.05007434 0.217883424 0.001217557 -0.000581096 0.0 0.0 0.0 0.0
645028500.0 -1.066960932 -0.013377022 0.00120361 -0.000313317 0.0 0.0 0.0 0.0
660028000.0 -1.026965856 -0.248494064 0.000664881 0.000419141 0.0 0.0 0.0 0.0
675027500.0 -0.938098624 -0.474809952 0.00080502 0.000465441 0.0 0.0 0.0 0.0
690027000.0 -0.79826944 -0.68328768 0.000961671 -0.000102946 0.0 0.0 0.0 0.0
705026500.0 -0.611582976 -0.850158464 0.001136306 0.000255021 0.0 0.0 0.0 0.0
720026000.0 -0.383849248 -0.973719296 0.000283696 1.9685e-05 0.0 0.0 0.0 0.0
735025500.0 -0.130644528 -1.041886688 0.000130529 0.000299913 0.0 0.0 0.0 0.0
750025000.0 0.139590096 -1.048662184 6.7236e-05 0.000577857 0.0 0.0 0.0 0.0
765024500.0 0.408377184 -0.988295552 -0.000837715 0.001316265 0.0 0.0 0.0 0.0
780024000.0 0.613952768 -0.858696448 0.000403313 0.001322875 0.0 0.0 0.0 0.0
795023500.0 0.864998208 -0.6620992 -0.000623864 0.000483222 0.0 0.0 0.0 0.0
810023000.0 1.021594644 -0.421222048 -0.000723756 -0.000347631 0.0 0.0 0.0 0.0
825022500.0 1.09147108 -0.15051544 -0.000805045 -0.000180008 0.0 0.0 0.0 0.0
840022000.0 1.095849632 0.118456696 -0.000557919 -0.000272458 0.0 0.0 0.0 0.0
855021500.0 1.039539932 0.372183296 -0.001605227 0.000869359 0.0 0.0 0.0 0.0
870021000.0 0.92225024 0.586962368 -9.7114e-05 -0.000437232 0.0 0.0 0.0 0.0
885020500.0 0.771449472 0.7678304 -0.000723953 0.000151885 0.0 0.0 0.0 0.0
900020000.0 0.612617984 0.9379824 0.000913342 -0.005716776 0.0 0.0 0.0 0.0
915019500.0 0.422478752 1.036456704 -0.001329353 -0.00126244 0.0 0.0 0.0 0.0
930019000.0 0.217098336 1.094495176 0.000442875 -0.000609455 0.0 0.0 0.0 0.0
945018500.0 0.010317114 1.106808184 0.002824889 -0.000422093 0.0 0.0 0.0 0.0
960018000.0 -0.191095568 1.088106512 0.000392274 0.000412744 0.0 0.0 0.0 0.0
975017500.0 -0.369898048 1.0416131 0.000144195 -0.000118264 0.0 0.0 0.0 0.0
990017000.0 -0.539993792 0.956800832 0.000324114 0.000642195 0.0 0.0 0.0 0.0
1005016500.0 -0.6959792 0.855460352 0.002054266 0.001245807 0.0 0.0 0.0 0.0
1020016000.0 -0.844543424 0.713502464 -0.000356817 -0.001460781 0.0 0.0 0.0 0.0
1035015500.0 -0.94819872 0.557695232 0.002691684 0.001459352 0.0 0.0 0.0 0.0
1050015000.0 -1.057534216 0.35528896 0.004294995 0.002995961 0.0 0.0 0.0 0.0
1065014500.0 -1.118550656 0.168081712 0.0019532 -0.000776664 0.0 0.0 0.0 0.0
1080014000.0 -1.140109664 -0.065653896 0.002231087 0.005401899 0.0 0.0 0.0 0.0
1095013500.0 -1.129346016 -0.288433152 0.000424696 0.00239163 0.0 0.0 0.0 0.0
1110013000.0 -1.085848688 -0.51058208 0.008013092 0.002586355 0.0 0.0 0.0 0.0
1125012500.0 -0.986468224 -0.744934784 0.007332962 0.002381931 0.0 0.0 0.0 0.0
1140012000.0 -0.801174016 -0.946183296 0.006570325 0.002652416 0.0 0.0 0.0 0.0
1155011500.0 -0.599395264 -1.175844912 -0.000693074 0.000567791 0.0 0.0 0.0 0.0
1170011000.0 -0.306836544 -1.277671584 -0.001784961 0.000283047 0.0 0.0 0.0 0.0
1185010500.0 0.008966908 -1.388021824 0.00305961 8.2586e-05 0.0 0.0 0.0 0.0
1200010000.0 0.399740736 -1.37470688 0.000595287 -0.009965808 0.0 0.0 0.0 0.0
1215009500.0 0.883576256 -1.238605504 0.001795662 0.002461889 0.0 0.0 0.0 0.0
1230009000.0 1.270946752 -0.886714304 0.004062341 0.000158326 0.0 0.0 0.0 0.0
1245008500.0 1.491281632 -0.415855232 -0.004160656 0.002431759 0.0 0.0 0.0 0.0
1260008000.0 1.444709664 0.07897368 -0.00091043 -0.001524652 0.0 0.0 0.0 0.0
1275007500.0 1.301564448 0.49496336 -0.001439322 0.003900913 0.0 0.0 0.0 0.0
1290007000.0 1.042022584 0.749403072 -0.003429828 0.006423704 0.0 0.0 0.0 0.0
1305006500.0 0.800999808 0.881520768 -0.002058388 -0.001859614 0.0 0.0 0.0 0.0
1320006000.0 0.618071424 0.935452224 -0.003783379 0.005313619 0.0 0.0 0.0 0.0
1335005500.0 0.428104352 0.997664128 0.001662784 0.001064116 0.0 0.0 0.0 0.0
1350005000.0 0.300051648 1.02455151 -0.006221806 0.0092608 0.0 0.0 0.0 0.0
1365004500.0 0.168568544 1.017790318 2.882e-05 0.002289931 0.0 0.0 0.0 0.0
1380004000.0 0.075003216 1.103359104 0.006299023 0.006092129 0.0 0.0 0.0 0.0
1395003500.0 -0.045794376 1.154062032 -0.003310054 -0.004863936 0.0 0.0 0.0 0.0
1410003000.0 -0.202174496 1.2356124 -0.000435146 -0.003219212 0.0 0.0 0.0 0.0
1425002500.0 -0.412708 1.349077216 0.001320289 0.000446881 0.0 0.0 0.0 0.0
1440002000.0 -0.77094208 1.41554784 -0.008812376 0.003216152 0.0 0.0 0.0 0.0
1455001500.0 -1.405768384 1.296082848 -0.001987323 0.003433602 0.0 0.0 0.0 0.0
1470001000.0 -1.950094016 0.576989696 0.016170638 0.004989079 0.0 0.0 0.0 0.0
1485000500.0 -1.769967424 -0.113450968 -0.003902742 0.004352171 0.0 0.0 0.0 0.0
1500000000.0 -1.337208864 -0.427504128 -0.016790908 -0.006801069 0.0 0.0 0.0 0.0
