! Created with skrf 1.8.0 (http://scikit-rf.org).
# Hz S RI R 50.0 
!freq ReS11 ImS11
1000000.0 0.9722534245083113 -0.00421613291606079
8495000.0 0.9709881085934029 -0.04818818341117801
15990000.0 0.9675734098904836 -0.09208564408775688
23485000.0 0.9624656713157503 -0.13527619206637445
30980000.0 0.9553565623114458 -0.178601274705364
38475000.0 0.9464234202135114 -0.22073917403192528
45970000.0 0.9357537028742552 -0.2620888085789037
53465000.0 0.923610462142408 -0.3025910767107147
60960000.0 0.9094714738753427 -0.34237139378676046
68455000.0 0.893650078230496 -0.3808457114260992
75950000.0 0.8764118838388508 -0.41815644250536366
83445000.0 0.8577201770033068 -0.4544701582695105
90940000.0 0.8373558470140885 -0.489239399321322
98435000.0 0.8157255298746701 -0.5228413318568128
105930000.0 0.7931205152229622 -0.5550594582236565
113425000.0 0.7692055585518637 -0.5857512680884485
120920000.0 0.7440043667024919 -0.6147412496922501
128415000.0 0.7185849312708538 -0.6422480311158151
135910000.0 0.6919246352834549 -0.6685036970692081
143405000.0 0.6643943687706263 -0.6931967550487359
150900000.0 0.6360955641080482 -0.7164049099046892
158395000.0 0.6072694874312696 -0.7381300005034638
165890000.0 0.5782474732141509 -0.758686610560639
173385000.0 0.5489686114561033 -0.7777580621152345
180880000.0 0.5191940928113288 -0.7957309476406867
188375000.0 0.4889818574557809 -0.8123122137253569
195870000.0 0.4588002041308793 -0.8279798271094695
203365000.0 0.42845813246518416 -0.8423547211666153
210860000.0 0.39801756951102363 -0.8557288612508932
218355000.0 0.36777341332964125 -0.8681885415282542
225850000.0 0.3374984661319972 -0.879595182259237
233345000.0 0.307744033495519 -0.8900594990918815
240840000.0 0.27810430302150985 -0.899660680002874
248335000.0 0.24890384146850972 -0.9081608473014163
255830000.0 0.219770022851571 -0.9159666594505834
263325000.0 0.19118815113956783 -0.9229636470014133
270820000.0 0.16302849625717183 -0.9292112190834659
278315000.0 0.13541783083813813 -0.9345626897448439
285810000.0 0.10827937617293558 -0.9393053204184139
293305000.0 0.08176385445201961 -0.9433695189233416
300800000.0 0.055587210353205484 -0.9470337440029685
308295000.0 0.0302354667143189 -0.9498020813544132
315790000.0 0.005476305054151436 -0.9521593435161797
323285000.0 -0.01869526524280197 -0.9537022403554285
330780000.0 -0.04218217346372926 -0.9546277630012909
338275000.0 -0.0651574405576786 -0.9550645346459276
345770000.0 -0.08730104305945348 -0.9550966899754335
353265000.0 -0.10885668065142524 -0.9543548268556397
360760000.0 -0.12971653161611382 -0.9532784649604057
368255000.0 -0.14985794681864276 -0.9515504649826386
375750000.0 -0.16943064518658466 -0.9494542945733232
383245000.0 -0.18848017854470986 -0.9467500884975557
390740000.0 -0.2068768719506002 -0.9432775257672384
398235000.0 -0.22506084137985802 -0.9387000553479814
405730000.0 -0.24082957760024323 -0.9320662276811876
413225000.0 -0.2540039787127205 -0.9300066225230019
420720000.0 -0.27140604956864717 -0.9266574572431349
428215000.0 -0.2879575735794007 -0.9216171007917914
435710000.0 -0.30392056530354267 -0.9159428198622331
443205000.0 -0.3193882962477177 -0.9097712545711191
450700000.0 -0.3343049653958795 -0.9034032475721571
458195000.0 -0.3490582509451066 -0.896545148902732
465690000.0 -0.3636872112209094 -0.8893932998310797
473185000.0 -0.37808490393323846 -0.8818252043711801
480680000.0 -0.39233884166246397 -0.8740759052219252
488175000.0 -0.4066413823951807 -0.865999282616279
495670000.0 -0.42087428951496225 -0.8576461058967892
503165000.0 -0.43490960965413333 -0.84886396604823
510660000.0 -0.44933342390725955 -0.8399953537826033
518155000.0 -0.4636299834592136 -0.8309749555823551
525650000.0 -0.4777641382883758 -0.8217282248819667
533145000.0 -0.49192288335549633 -0.8123065000961743
540640000.0 -0.5060790605804036 -0.8026308063466268
548135000.0 -0.5202124401835792 -0.792829392720829
555630000.0 -0.5343205266079213 -0.7826701419630233
563125000.0 -0.5483176153830689 -0.7724460360295864
570620000.0 -0.5624856786765761 -0.761967840594696
578115000.0 -0.5764263323086449 -0.7512262268118745
585610000.0 -0.5901704152238024 -0.73995413721643
593105000.0 -0.6037298759241109 -0.7280868189050395
600600000.0 -0.6170802443029997 -0.715469362746136
608095000.0 -0.6299065895669214 -0.7018725145583679
615590000.0 -0.6424159523796176 -0.6871407653559716
623085000.0 -0.6539582591550055 -0.6711255630852628
630580000.0 -0.6645116315037537 -0.6536878594186624
638075000.0 -0.6739228868040197 -0.634043013058104
645570000.0 -0.6813136111002781 -0.6117573595552702
653065000.0 -0.6863807810535706 -0.5859510028209869
660560000.0 -0.687665797343062 -0.5541586417152885
668055000.0 -0.6791069738742369 -0.5158454358156542
675550000.0 -0.6557411959539674 -0.47300918574898876
683045000.0 -0.6067094520869567 -0.43207046022020235
690540000.0 -0.5285313566980503 -0.41703355824840777
698035000.0 -0.44472247436805007 -0.4499775926721677
705530000.0 -0.3931878605266495 -0.5255961571974646
713025000.0 -0.39165197723533285 -0.6057322627054191
720520000.0 -0.4208645653541656 -0.6644914955291014
728015000.0 -0.4604011782649381 -0.6976399018141279
735510000.0 -0.4968105549770814 -0.7116054953640022
743005000.0 -0.5271789826031531 -0.7159641636373284
750500000.0 -0.5527523452434131 -0.7139907997264991
757995000.0 -0.5731241977608081 -0.708810287990631
765490000.0 -0.5904066922745508 -0.7019511307620141
772985000.0 -0.6053290047736007 -0.6937362039591369
780480000.0 -0.6176450886019733 -0.6840384506999492
787975000.0 -0.6275594349674913 -0.6739969425553081
795470000.0 -0.6352485537825963 -0.6643935531988852
802965000.0 -0.6413605717836316 -0.6558831947173952
810460000.0 -0.6473754647237234 -0.649602757039581
817955000.0 -0.6550294213563176 -0.6435081562638291
825450000.0 -0.6633002874722388 -0.6366248827195735
832945000.0 -0.6721056105656222 -0.6289054590916087
840440000.0 -0.680733133137605 -0.6199710735887676
847935000.0 -0.6889490860544341 -0.6104562492533112
855430000.0 -0.6962184926611378 -0.6001142934688591
862925000.0 -0.7024383120114015 -0.5896069754846521
870420000.0 -0.7066034954430318 -0.5789401623590023
877915000.0 -0.7089697582189597 -0.5698392563883511
885410000.0 -0.710498751207713 -0.5638400906529635
892905000.0 -0.7142020086825254 -0.5605860881125173
900400000.0 -0.7207020247557666 -0.5575637313063524
907895000.0 -0.728967942455643 -0.5533135113652596
915390000.0 -0.7374442897906754 -0.547301539813282
922885000.0 -0.7453083361443794 -0.5403585992399699
930380000.0 -0.7527446138827492 -0.5335368393373618
937875000.0 -0.7598938978529354 -0.5262064867760555
945370000.0 -0.7663964987043813 -0.5187861319699153
952865000.0 -0.7727126046867787 -0.5114475040234308
960360000.0 -0.7787207164467614 -0.5041379847969178
967855000.0 -0.784619157198143 -0.4966991073516942
975350000.0 -0.7900285338256895 -0.4891932106103869
982845000.0 -0.7950547462061173 -0.4813756711130262
990340000.0 -0.7996990024171917 -0.473553181048452
997835000.0 -0.8040508109851588 -0.46571196479600746
1005330000.0 -0.8080889931031286 -0.4577126466031165
1012825000.0 -0.8117891664337266 -0.4497584684880492
1020320000.0 -0.8151872826724804 -0.4415304336529614
1027815000.0 -0.8181703907171157 -0.43321341409200476
1035310000.0 -0.8209543146562729 -0.4245790299766165
1042805000.0 -0.823389490759552 -0.41547596694864897
1050300000.0 -0.8253160033266127 -0.40595108773918775
1057795000.0 -0.8269348471453347 -0.39589896849240275
1065290000.0 -0.8280588951255239 -0.3853340649809319
1072785000.0 -0.8286147397032382 -0.3744180937724201
1080280000.0 -0.8285449993527183 -0.36266943446893496
1087775000.0 -0.8273870695239708 -0.3502200011891569
1095270000.0 -0.8250659113257325 -0.3371468310112298
1102765000.0 -0.8215061061646478 -0.32323892766124396
1110260000.0 -0.8157023144778142 -0.30904618381880483
1117755000.0 -0.8077441295181975 -0.29544718798784264
1125250000.0 -0.7978193627929541 -0.28274964363940813
1132745000.0 -0.785988328804318 -0.2715733105844364
1140240000.0 -0.7730284988700837 -0.26290805967004965
1147735000.0 -0.7597059094971542 -0.25661331091521244
1155230000.0 -0.7475125081771978 -0.25238047422341453
1162725000.0 -0.7354633052730749 -0.2479724677902354
1170220000.0 -0.7216757069965019 -0.2453595065758305
1177715000.0 -0.7070778826932193 -0.24551478149393421
1185210000.0 -0.6918911894667972 -0.25018276027369896
1192705000.0 -0.6796606739802512 -0.2593482182940291
1200200000.0 -0.6708047038665143 -0.27125519448886726
1207695000.0 -0.6663953759081143 -0.2853651711530346
1215190000.0 -0.6669407311920097 -0.3000457434675242
1222685000.0 -0.6713760410449322 -0.31364365157008817
1230180000.0 -0.6790931256661313 -0.3256650931147171
1237675000.0 -0.6895242250138236 -0.336056240686942
1245170000.0 -0.7019776377595316 -0.34401854474825605
1252665000.0 -0.7157262814286625 -0.3493002270676538
1260160000.0 -0.729702033789133 -0.3518152367157602
1267655000.0 -0.7431792076690094 -0.35170867481566154
1275150000.0 -0.7557495084532034 -0.34978128833717187
1282645000.0 -0.7672837555989179 -0.3464538438895586
1290140000.0 -0.777458816682712 -0.3420688524161269
1297635000.0 -0.786006217248271 -0.33703919654169573
1305130000.0 -0.7932871708292701 -0.3320882304885678
1312625000.0 -0.7992266080454672 -0.32709795941681263
1320120000.0 -0.8039120707248374 -0.32221118836571644
1327615000.0 -0.8076631054033744 -0.3176585958292874
1335110000.0 -0.810330886571303 -0.3137694463227013
1342605000.0 -0.8124059484220791 -0.31072782918839786
1350100000.0 -0.8146669463056819 -0.3082201034275151
1357595000.0 -0.8167629658143096 -0.30622990172256964
1365090000.0 -0.8193601455054085 -0.30458272004752646
1372585000.0 -0.8225030415016071 -0.30284482446443495
1380080000.0 -0.8260575478248917 -0.3005902330279928
1387575000.0 -0.8295571094939787 -0.29764571972411297
1395070000.0 -0.8331364979606549 -0.29425366077028553
1402565000.0 -0.8368863458400376 -0.29010641760423805
1410060000.0 -0.8404721404540514 -0.28510162942461087
1417555000.0 -0.8438272908879657 -0.27934387022040097
1425050000.0 -0.84681780003677 -0.27276681978247025
1432545000.0 -0.8492473308668227 -0.26538102040843464
1440040000.0 -0.8510819234827484 -0.2574752695847643
1447535000.0 -0.8522798732426077 -0.24933976376130318
1455030000.0 -0.8525778451721289 -0.24093259432793768
1462525000.0 -0.8522006071045533 -0.23270127630079399
1470020000.0 -0.8512017219455451 -0.22448903038595236
1477515000.0 -0.8495674746393364 -0.21663925248999
1485010000.0 -0.8476043045904035 -0.20926860506136105
1492505000.0 -0.8451196835080405 -0.20264163002198832
1500000000.0 -0.8421373787472741 -0.19705329594940205
