! Created with skrf 1.8.0 (http://scikit-rf.org).
# Hz S RI R 50.0 
!freq ReS11 ImS11
1000000.0 -1.0004849798955289 -1.4458334810613276e-05
8495000.0 -1.0006574930891328 -7.06297435098546e-05
15990000.0 -1.0006839462029677 -1.3933933875315095e-05
23485000.0 -1.0007273199552726 -4.6755472824835324e-05
30980000.0 -1.0006223481589291 -3.347453325787988e-05
38475000.0 -1.0005658703320512 -5.0407578902924574e-05
45970000.0 -1.0006462486323464 -0.00011745727323866261
53465000.0 -1.0006026809088029 -1.8776657259130494e-05
60960000.0 -1.0006308372973851 -0.00010866641406401053
68455000.0 -1.0007328177457602 -6.033332045803496e-06
75950000.0 -1.0006391254228202 -4.614637081805294e-05
83445000.0 -1.000635155261887 -8.054589040417911e-05
90940000.0 -1.0005813742335818 -5.8888953441672736e-05
98435000.0 -1.000639358184554 6.0328820945665975e-05
105930000.0 -1.0007197530549095 -6.182145859062553e-05
113425000.0 -1.000693778276565 -2.3756414157059512e-05
120920000.0 -1.0006386961980054 4.8518180254724896e-05
128415000.0 -1.0006870543234603 0.00011170092664158419
135910000.0 -1.000718465561651 -2.2116180975118297e-05
143405000.0 -1.0006320268902027 -2.152167077657404e-05
150900000.0 -1.0007593207821588 4.318130732867574e-05
158395000.0 -1.000644101010871 -1.795765957772906e-05
165890000.0 -1.0006048891144643 0.0001125585169066354
173385000.0 -1.0006638380701633 7.613766690558243e-05
180880000.0 -1.0006603212530487 2.6576821267862904e-05
188375000.0 -1.0006000385243263 4.713890176181322e-05
195870000.0 -1.0005518310823118 1.3237222262514243e-05
203365000.0 -1.0005967047869833 5.4149346363264024e-05
210860000.0 -1.0005454441361539 2.425416778024414e-05
218355000.0 -1.0006102546594435 5.771862980517419e-05
225850000.0 -1.000572813877169 9.919948060859552e-06
233345000.0 -1.000550139427723 -1.2128653227175257e-05
240840000.0 -1.0005585697157913 -8.062012140335803e-05
248335000.0 -1.0006060531809913 -4.1987610701931614e-05
255830000.0 -1.0005999753235693 -9.423108461739506e-06
263325000.0 -1.0005968339944642 -2.0030989516122208e-05
270820000.0 -1.0006619740876532 -4.547974807090988e-05
278315000.0 -1.0006562550484497 -5.3425026164279874e-05
285810000.0 -1.0005890455309485 -2.0522923355262405e-05
293305000.0 -1.0006799959367345 -5.6815237700364035e-05
300800000.0 -1.0006448386361877 -9.93061943876951e-05
308295000.0 -1.0006765276241483 5.365190146472669e-06
315790000.0 -1.0007214450040531 1.3626456514327508e-05
323285000.0 -1.0006650541323774 8.517770508798132e-05
330780000.0 -1.0007267780501514 -6.754253579677232e-06
338275000.0 -1.0006901734776372 8.49390363363255e-05
345770000.0 -1.0006415340721475 8.300691265295502e-05
353265000.0 -1.0007230155801354 0.00010062273978704494
360760000.0 -1.0007400857405526 0.0001920803620824063
368255000.0 -1.0005680595036532 4.677332202908113e-05
375750000.0 -1.0007212249907598 0.00010012751999426665
383245000.0 -1.0007317146602661 0.0001096729466548903
390740000.0 -1.000615367677188 7.64079049948865e-05
398235000.0 -1.0006567519844054 6.510921620682404e-05
405730000.0 -1.0005900765398084 0.0001265261118358823
413225000.0 -1.0006637428468173 0.00019575123795461768
420720000.0 -1.0005963302685619 0.00017159845277907602
428215000.0 -1.0006432305223465 0.00015674489995303403
435710000.0 -1.0005932760471146 0.00012200011656763231
443205000.0 -1.0005667167759895 0.0001293050894395044
450700000.0 -1.000651773604549 0.00017309754108002837
458195000.0 -1.0005832327450712 8.180871887433586e-05
465690000.0 -1.0006628571258993 0.00010168500222569822
473185000.0 -1.0007564926450407 0.00010542180069406183
480680000.0 -1.0006762807771237 0.00012347003875311734
488175000.0 -1.0007613266190403 9.683982741964006e-05
495670000.0 -1.0007227478814926 0.0001709559625909666
503165000.0 -1.0007025214674314 0.00019858188186072493
510660000.0 -1.0007528468475204 0.00013594952249644364
518155000.0 -1.0007211169616568 0.00017086669838844133
525650000.0 -1.0007091390807892 0.00020824465053522292
533145000.0 -1.0007870938392436 0.00021332603166983698
540640000.0 -1.0007025265393517 0.0002556459439332836
548135000.0 -1.0008207872745785 0.00024547193683957297
555630000.0 -1.0007411878060137 0.00021390845325366402
563125000.0 -1.0008302891776406 0.000122562056090044
570620000.0 -1.0007318767373818 0.00021484555335752706
578115000.0 -1.0007852551746939 0.00017230414716662987
585610000.0 -1.0007599411937182 0.00021095410531165657
593105000.0 -1.0007174858694765 0.00018997941085978777
600600000.0 -1.000764873019526 0.00019075184519562282
608095000.0 -1.000635975649198 0.0003074433599916509
615590000.0 -1.000775039098378 0.00024399862596020998
623085000.0 -1.0007779441704607 0.0003148175418514897
630580000.0 -1.0007240527727252 0.0003070353124299749
638075000.0 -1.0009131957450836 0.00015947969582273696
645570000.0 -1.000764307153672 0.00024139586700335392
653065000.0 -1.0008321975855352 0.0002949898294355425
660560000.0 -1.000813586096969 0.00022421361141831652
668055000.0 -1.0008029216518737 0.00024879487872729345
675550000.0 -1.0008372139012993 0.00027577038793395454
683045000.0 -1.0008710866892534 0.00034849533735687187
690540000.0 -1.0009054864338403 0.00027072774426934387
698035000.0 -1.0009463700797263 0.0004311049174035792
705530000.0 -1.0010282865947742 0.000374591242045904
713025000.0 -1.0007785465791201 0.0003909754994238657
720520000.0 -1.0009349355015855 0.00040834372370547286
728015000.0 -1.0010216379198713 0.00024439818035513057
735510000.0 -1.0009560885632347 0.0003900344144588593
743005000.0 -1.0011426011829094 0.00039396860987458233
750500000.0 -1.000960434288518 0.0004240424999160635
757995000.0 -1.000987310615164 0.0003626864539771851
765490000.0 -1.0010340029123086 0.00041623464311890023
772985000.0 -1.0009933730424327 0.00027074592982397354
780480000.0 -1.0010763216663243 0.000409940772805873
787975000.0 -1.0010923254770012 0.00033115402778837155
795470000.0 -1.0009250915643397 0.00036232370522427054
802965000.0 -1.0010110485434938 0.0002757372367456254
810460000.0 -1.001004904609048 0.00027390086444591106
817955000.0 -1.0011361178009113 0.00029200493171917155
825450000.0 -1.0010866656677582 0.00030452836558716697
832945000.0 -1.0010777216020668 0.00021521298958703046
840440000.0 -1.000968127356385 0.0003283832946086093
847935000.0 -1.001075626298761 0.00024521029861000005
855430000.0 -1.0009735317203055 0.0003259568393645911
862925000.0 -1.0010481104332798 0.000360234849595225
870420000.0 -1.0009539347491803 0.0002690592440186239
877915000.0 -1.0009397792959658 0.0003046058402364668
885410000.0 -1.0009275175043044 0.0002881689992578674
892905000.0 -1.0009174048541531 0.0003377752755748522
900400000.0 -1.00098726708694 0.00025613547011653316
907895000.0 -1.0010202247783195 0.0002558208775961568
915390000.0 -1.0009451921554877 0.00027956353060266736
922885000.0 -1.0010266439841362 0.00030014808611558203
930380000.0 -1.0009982141501095 0.00035146812576191576
937875000.0 -1.0010527004176404 0.00030686810753551247
945370000.0 -1.00090714920582 0.0003760546682612337
952865000.0 -1.001073844730953 0.00041485548076922315
960360000.0 -1.0010054287546992 0.0003496234529883653
967855000.0 -1.0008389165081661 0.0005301160297169259
975350000.0 -1.0009853765792953 0.0003819937809278849
982845000.0 -1.0009312344344021 0.0004023800865087051
990340000.0 -1.000935442388229 0.00046528888818877996
997835000.0 -1.0009476293156272 0.00040911910575687775
1005330000.0 -1.0009729051528113 0.0004396846126433232
1012825000.0 -1.0009235270462595 0.0005472546546466889
1020320000.0 -1.000951320087072 0.0004980413072759152
1027815000.0 -1.00089212501054 0.00048692936666446115
1035310000.0 -1.0008529176465348 0.00046440908615381747
1042805000.0 -1.0009033153941715 0.00046894431246082035
1050300000.0 -1.000832251364503 0.0003941270653975129
1057795000.0 -1.0008551372883792 0.00037685931435501837
1065290000.0 -1.0008409174309725 0.0003702478724254332
1072785000.0 -1.000867157989534 0.0004059973727120706
1080280000.0 -1.0008846132863078 0.00042269180682959705
1087775000.0 -1.0007399717605796 0.0004093312858914297
1095270000.0 -1.0007636912627027 0.0004598907477037215
1102765000.0 -1.0007785856923226 0.0005271083023160086
1110260000.0 -1.0007291957340834 0.00043894779284540746
1117755000.0 -1.000770369679089 0.00041998718167634663
1125250000.0 -1.000820563916108 0.0005069959764576906
1132745000.0 -1.0008579367375203 0.00046116647985527097
1140240000.0 -1.0006968763127406 0.00042716101858921774
1147735000.0 -1.0006731470104762 0.0005261527560856717
1155230000.0 -1.0007259176960936 0.000622779842008604
1162725000.0 -1.0007067675379975 0.0005570774999918386
1170220000.0 -1.0007156847894383 0.0006605173868903466
1177715000.0 -1.0007515631645707 0.0006532649392781359
1185210000.0 -1.0007384735184095 0.0007323647392433769
1192705000.0 -1.000680812692742 0.0007643109394566036
1200200000.0 -1.0006081479716105 0.0009496261394712634
1207695000.0 -1.000683047739669 0.0008642311729207023
1215190000.0 -1.0006059687527442 0.000975871205079488
1222685000.0 -1.0006661062558524 0.0009729546519539983
1230180000.0 -1.0008096678279872 0.000947756247704183
1237675000.0 -1.0007620364654728 0.0010620170690629363
1245170000.0 -1.0007682200405816 0.0010053732290704667
1252665000.0 -1.0007633629296309 0.001034842657132944
1260160000.0 -1.000719729662801 0.0009484353911722483
1267655000.0 -1.000714726714534 0.0009529343690502207
1275150000.0 -1.0006607821527937 0.0009247933159851398
1282645000.0 -1.0006832498190907 0.00101458704978255
1290140000.0 -1.0006162625274095 0.0009339361756276232
1297635000.0 -1.0006483987069545 0.0009783651158041151
1305130000.0 -1.0005532201859697 0.000977781562188499
1312625000.0 -1.000558512357411 0.0010123393032402978
1320120000.0 -1.0004693588147053 0.001030258932643046
1327615000.0 -1.000585281784607 0.0009570902366024766
1335110000.0 -1.0004697803455056 0.0010432681114658198
1342605000.0 -1.000477132057825 0.0010338213897387216
1350100000.0 -1.0005014667143812 0.0011563877663820752
1357595000.0 -1.000360063052486 0.0010581128616009296
1365090000.0 -1.0004722976492302 0.0011257419612851851
1372585000.0 -1.000388593573824 0.0011579308270754747
1380080000.0 -1.0004057685723973 0.0011148728673254999
1387575000.0 -1.00042430466968 0.0012047387032503684
1395070000.0 -1.0004396013809733 0.0011515662259585242
1402565000.0 -1.0003480804968787 0.001178662286712502
1410060000.0 -1.0004575855891764 0.0012649591843770021
1417555000.0 -1.000443815610287 0.001232598276256124
1425050000.0 -1.000434830152564 0.0010977705571672937
1432545000.0 -1.0004379032867947 0.001236030300840728
1440040000.0 -1.0005079071525045 0.0013121494359211148
1447535000.0 -1.0004982941079004 0.001234915879630017
1455030000.0 -1.0003724730327272 0.0011089208114724598
1462525000.0 -1.000588896787856 0.0011372875685908737
1470020000.0 -1.000479635029599 0.0011536196175734772
1477515000.0 -1.0004441032966886 0.0011785663459084595
1485010000.0 -1.0004941156995366 0.0012651621203998236
1492505000.0 -1.0004613592976472 0.0010562649804636837
1500000000.0 -1.0004266012591623 0.0011393136546380426
