! Created with skrf 1.8.0 (http://scikit-rf.org).
# Hz S RI R 50.0 
!freq ReS11 ImS11
1000000.0 0.9997364321039318 -0.0010997607194343667
8495000.0 0.9996115846300567 -0.012949664615968335
15990000.0 0.9990448235551481 -0.024856100923345906
23485000.0 0.9978413665481589 -0.03668913872888251
30980000.0 0.9964414454207283 -0.048654962473470106
38475000.0 0.9945392301626359 -0.05995948866557112
45970000.0 0.9922748012831132 -0.071543871450252
53465000.0 0.9896890506907396 -0.08278831291174221
60960000.0 0.9867488379846715 -0.09385940455919606
68455000.0 0.9832205366205815 -0.10468306978254178
75950000.0 0.9794419467868081 -0.11522179957475455
83445000.0 0.9756395649354539 -0.12562866820558477
90940000.0 0.9711011073045983 -0.13573780356842488
98435000.0 0.9662608891229103 -0.14571454380782947
105930000.0 0.9612890717411847 -0.15536005213602852
113425000.0 0.9558427996204147 -0.16474906165860134
120920000.0 0.950059476420803 -0.17380160488763413
128415000.0 0.9442326441499671 -0.18236102002165333
135910000.0 0.9381620256118047 -0.19090033375894397
143405000.0 0.931799349097019 -0.1991176668631755
150900000.0 0.9250881703953487 -0.20709926675716023
158395000.0 0.918283966763208 -0.21478956917326025
165890000.0 0.9111817770036224 -0.22217837674460242
173385000.0 0.9040770003675348 -0.22911411943179702
180880000.0 0.8969841788786932 -0.23587979879508128
188375000.0 0.8896977121982276 -0.24259908910246086
195870000.0 0.8824396920736937 -0.2490571612964192
203365000.0 0.8749809937867176 -0.2553520647528451
210860000.0 0.8673799916179107 -0.2613111054495195
218355000.0 0.8599112113125504 -0.26708617848239524
225850000.0 0.8522945661099275 -0.2727711856852417
233345000.0 0.8448438377754854 -0.27811052077878323
240840000.0 0.8374531291744692 -0.2833674680621408
248335000.0 0.8300608866065644 -0.28836802446728366
255830000.0 0.8228185821277664 -0.29325917185074657
263325000.0 0.8156818939527165 -0.29793814458227497
270820000.0 0.8087685784240319 -0.30231275007164937
278315000.0 0.8018203596188125 -0.30660843501956686
285810000.0 0.7947870843577843 -0.31067858587064184
293305000.0 0.7880814842948597 -0.31448700137204705
300800000.0 0.7816684610946497 -0.3182535799638871
308295000.0 0.7752910476905251 -0.32167592077721596
315790000.0 0.7691238402098447 -0.3249044407040487
323285000.0 0.7631230249616615 -0.327997958395186
330780000.0 0.757337311855434 -0.33092619210885765
338275000.0 0.7516575039037002 -0.3335986763329004
345770000.0 0.7460901907173076 -0.33596030020260914
353265000.0 0.7405548792627582 -0.3382608453283751
360760000.0 0.735203377081415 -0.34028766955633405
368255000.0 0.7300288226417462 -0.3421114835119032
375750000.0 0.7250747852860547 -0.34382128854108096
383245000.0 0.7201826351899014 -0.345183320125741
390740000.0 0.7153986690522893 -0.3463536507608936
398235000.0 0.7106473165720185 -0.34743036053323273
405730000.0 0.7058648297481231 -0.34825885176754656
413225000.0 0.7012220150600234 -0.3489880990305595
420720000.0 0.6965329954665411 -0.34940777174155896
428215000.0 0.6918452366644819 -0.3497975468048792
435710000.0 0.6871356986137773 -0.3500485963863093
443205000.0 0.682582674223337 -0.35018070318980093
450700000.0 0.6778405150907407 -0.35019987715241274
458195000.0 0.6731827898257225 -0.35027105681891907
465690000.0 0.6685423480549169 -0.3501635975382974
473185000.0 0.6638114348671729 -0.35005926666823467
480680000.0 0.6590710349855278 -0.3498864149893479
488175000.0 0.6544014697031232 -0.3496994103095309
495670000.0 0.6495902878823969 -0.3496013256497857
503165000.0 0.6448463769861147 -0.34957635818044613
510660000.0 0.640237403416079 -0.3496708417602042
518155000.0 0.6355251085137612 -0.3497892085861523
525650000.0 0.6309011435004855 -0.34989656519188456
533145000.0 0.6264129603532285 -0.3502056025306884
540640000.0 0.6219005690749335 -0.35045397183325744
548135000.0 0.6173923817301241 -0.3509275167567015
555630000.0 0.6130432241696341 -0.351494598428811
563125000.0 0.6088514733107463 -0.35214985999592446
570620000.0 0.6048932683074895 -0.35282957718747276
578115000.0 0.6010791477312157 -0.35362664943965716
585610000.0 0.5973793233357212 -0.3544951760442512
593105000.0 0.5938963034860562 -0.3552671729990127
600600000.0 0.5905517424135421 -0.3562139166208615
608095000.0 0.5873470639399385 -0.3570812053762754
615590000.0 0.5844170981865681 -0.35806409725600735
623085000.0 0.5818121853327726 -0.3590086215340697
630580000.0 0.5793299921897673 -0.3598196561094528
638075000.0 0.5769783282541925 -0.36061667119215945
645570000.0 0.5750416045488882 -0.36125552539141087
653065000.0 0.573074696615562 -0.3617753865665786
660560000.0 0.5712718107248449 -0.36226435379177163
668055000.0 0.5696017427340946 -0.36254612129010544
675550000.0 0.5681800564363815 -0.36275862881027904
683045000.0 0.5667299232391748 -0.36271708360809046
690540000.0 0.5654195270538177 -0.36252333614936205
698035000.0 0.5641552052947302 -0.36211181568102696
705530000.0 0.5630472905858324 -0.36158386746808696
713025000.0 0.5616819300417778 -0.3607808721470903
720520000.0 0.5605367518948544 -0.3599390610390982
728015000.0 0.5591350101049067 -0.35889489521559353
735510000.0 0.5577387738874233 -0.35758636655107745
743005000.0 0.5562475809991564 -0.356257414316026
750500000.0 0.5547649486067543 -0.3549688952021427
757995000.0 0.5531518634619961 -0.35349806870070427
765490000.0 0.5514173138913615 -0.35190338196208243
772985000.0 0.5495251200235722 -0.35031535962524407
780480000.0 0.5475916552392714 -0.3488317918790985
787975000.0 0.5456025554692925 -0.3472319376241714
795470000.0 0.5432902363687006 -0.3457624703240813
802965000.0 0.5410474039617518 -0.34422964221718416
810460000.0 0.5385070875565119 -0.3427793737277719
817955000.0 0.535907217115206 -0.3413632027195766
825450000.0 0.533229348686058 -0.3400051438128318
832945000.0 0.5305556406053896 -0.3389050948859466
840440000.0 0.5277444056239023 -0.33789514970129675
847935000.0 0.5249158188956867 -0.3369276821049763
855430000.0 0.5221047747773517 -0.33613461804220546
862925000.0 0.5193216100210528 -0.33554616827259115
870420000.0 0.5163772954583211 -0.3348939227963765
877915000.0 0.5135300871877125 -0.3345269294868806
885410000.0 0.5106664157668193 -0.3342255206236356
892905000.0 0.5079619563174537 -0.33408192134774073
900400000.0 0.5052642470706933 -0.33399673185786
907895000.0 0.502701549106757 -0.33392256017090016
915390000.0 0.5001673801924029 -0.33407073654224484
922885000.0 0.4977347148291665 -0.33412982426754323
930380000.0 0.49557642101774896 -0.3344368757052657
937875000.0 0.4933455207021281 -0.33468513180628845
945370000.0 0.49135424984187875 -0.3347855982530594
952865000.0 0.4893404839358349 -0.3350717680594328
960360000.0 0.48741525572018424 -0.3353008241376645
967855000.0 0.4857431154355319 -0.33563510328918417
975350000.0 0.4841771332156624 -0.3358168346156801
982845000.0 0.48261083383179443 -0.33598734088910087
990340000.0 0.4811184834067177 -0.3361196732004388
997835000.0 0.4797597956588002 -0.3361616273750337
1005330000.0 0.4784255979279222 -0.33618370687535987
1012825000.0 0.47724155542152186 -0.33605455519550975
1020320000.0 0.47602199904956644 -0.3358677746158399
1027815000.0 0.47483206918015447 -0.3355373889025234
1035310000.0 0.47368068144514747 -0.33515990736385975
1042805000.0 0.4724399821295025 -0.3346373818852276
1050300000.0 0.47119395334091774 -0.3340139947583045
1057795000.0 0.4699362985276977 -0.3332737828869567
1065290000.0 0.4686403524985095 -0.3324550873204448
1072785000.0 0.4672954363726437 -0.3315666253325897
1080280000.0 0.4658543663850403 -0.33063625722421736
1087775000.0 0.46426756988343804 -0.32957564108724835
1095270000.0 0.4625917348077625 -0.32843909656448833
1102765000.0 0.46079648408663726 -0.3273461202157802
1110260000.0 0.4587943303549387 -0.3262551702846174
1117755000.0 0.4568106100217874 -0.32515898690149875
1125250000.0 0.4546776459214339 -0.3240308861349225
1132745000.0 0.4523903437873611 -0.32287057086498117
1140240000.0 0.4499622243710607 -0.32176264334788723
1147735000.0 0.4473579736317223 -0.3207760980344217
1155230000.0 0.44474681210304207 -0.31993899921814367
1162725000.0 0.4420141219337473 -0.31912690499779073
1170220000.0 0.4391076247490442 -0.3182922189540517
1177715000.0 0.4361268213950646 -0.31766418900350357
1185210000.0 0.4330216819382008 -0.31731579143619687
1192705000.0 0.42986678167057807 -0.316941358436045
1200200000.0 0.4266642056076955 -0.31693303659536703
1207695000.0 0.4234403131396569 -0.3170758415361393
1215190000.0 0.42026572945282137 -0.31727252711379555
1222685000.0 0.41711468816691655 -0.3176378459211289
1230180000.0 0.4139457798804179 -0.31816207514481465
1237675000.0 0.41084397329841577 -0.3190252489853945
1245170000.0 0.407900725597193 -0.31991230369458695
1252665000.0 0.4050316586943024 -0.3210570778014974
1260160000.0 0.4023215156206986 -0.3222945722310407
1267655000.0 0.3996674724903387 -0.323671483461442
1275150000.0 0.39728026500711466 -0.32517456428291114
1282645000.0 0.3950593106899744 -0.3267869819046907
1290140000.0 0.39304904222608184 -0.32852211001282905
1297635000.0 0.3912544938554431 -0.33027048198605874
1305130000.0 0.38952367683150385 -0.33194344701101247
1312625000.0 0.388058789974326 -0.3336861943186629
1320120000.0 0.38666370510321957 -0.3354183693818966
1327615000.0 0.38556133658434494 -0.33712038632402647
1335110000.0 0.3844887702230623 -0.33875731972506334
1342605000.0 0.383721563416947 -0.34021906364764953
1350100000.0 0.38293480957509535 -0.34158406492263793
1357595000.0 0.38231884189964754 -0.3427583992076687
1365090000.0 0.38178830160112315 -0.3436830670624697
1372585000.0 0.3812431784506832 -0.34448707626451186
1380080000.0 0.3806682050185809 -0.34515763164764457
1387575000.0 0.3800728533831436 -0.3457566839832265
1395070000.0 0.37955166549768954 -0.3462473480831418
1402565000.0 0.3790860297422477 -0.346478205878842
1410060000.0 0.3785476003362377 -0.3464825807514278
1417555000.0 0.3778345079448742 -0.346393634760703
1425050000.0 0.3769547560430092 -0.34624373382056284
1432545000.0 0.3758926400440471 -0.3460095183652907
1440040000.0 0.37486660577435654 -0.3458485129745994
1447535000.0 0.37374122000455956 -0.3457402431095644
1455030000.0 0.3724266091830139 -0.3456507248595619
1462525000.0 0.37108888469780144 -0.34556954201674
1470020000.0 0.3694893288969923 -0.34557336828394997
1477515000.0 0.3677607445066707 -0.34569939516122405
1485010000.0 0.3658987044752583 -0.34585920865065944
1492505000.0 0.3637762458234427 -0.34621509547756085
1500000000.0 0.36179616096416983 -0.34668530148583
